p cnf 28 76
-1 5 0
1 -5 0
-6 0
-7 0
1 17 0
-1 -17 0
-18 0
-19 0
-5 8 0
-2 8 0
2 5 -8 0
-6 9 0
-2 -5 9 0
5 6 -9 0
2 6 -9 0
-7 10 0
-2 -6 10 0
6 7 -10 0
2 7 -10 0
-17 20 0
2 20 0
-2 17 -20 0
-18 21 0
2 -17 21 0
17 18 -21 0
-2 18 -21 0
-19 22 0
2 -18 22 0
18 19 -22 0
-2 19 -22 0
-8 11 0
-3 11 0
3 8 -11 0
-9 12 0
-3 -8 12 0
8 9 -12 0
3 9 -12 0
-10 13 0
-3 -9 13 0
9 10 -13 0
3 10 -13 0
-20 23 0
3 23 0
-3 20 -23 0
-21 24 0
3 -20 24 0
20 21 -24 0
-3 21 -24 0
-22 25 0
3 -21 25 0
21 22 -25 0
-3 22 -25 0
-11 14 0
-4 14 0
4 11 -14 0
-12 15 0
-4 -11 15 0
11 12 -15 0
4 12 -15 0
-13 16 0
-4 -12 16 0
12 13 -16 0
4 13 -16 0
-23 26 0
4 26 0
-4 23 -26 0
-24 27 0
4 -23 27 0
23 24 -27 0
-4 24 -27 0
-25 28 0
4 -24 28 0
24 25 -28 0
-4 25 -28 0
16 0
28 0
