c Pigeonhole formula PHP_35
c 36 pigeons, 35 holes
c Unsatisfiable: YES (pigeonhole principle)
c Variables: 1260
c Clauses: 22086
p cnf 1260 22086
1 2 3 4 5 6 7 8 9 10 11 12 13 14 15 16 17 18 19 20 21 22 23 24 25 26 27 28 29 30 31 32 33 34 35 0
36 37 38 39 40 41 42 43 44 45 46 47 48 49 50 51 52 53 54 55 56 57 58 59 60 61 62 63 64 65 66 67 68 69 70 0
71 72 73 74 75 76 77 78 79 80 81 82 83 84 85 86 87 88 89 90 91 92 93 94 95 96 97 98 99 100 101 102 103 104 105 0
106 107 108 109 110 111 112 113 114 115 116 117 118 119 120 121 122 123 124 125 126 127 128 129 130 131 132 133 134 135 136 137 138 139 140 0
141 142 143 144 145 146 147 148 149 150 151 152 153 154 155 156 157 158 159 160 161 162 163 164 165 166 167 168 169 170 171 172 173 174 175 0
176 177 178 179 180 181 182 183 184 185 186 187 188 189 190 191 192 193 194 195 196 197 198 199 200 201 202 203 204 205 206 207 208 209 210 0
211 212 213 214 215 216 217 218 219 220 221 222 223 224 225 226 227 228 229 230 231 232 233 234 235 236 237 238 239 240 241 242 243 244 245 0
246 247 248 249 250 251 252 253 254 255 256 257 258 259 260 261 262 263 264 265 266 267 268 269 270 271 272 273 274 275 276 277 278 279 280 0
281 282 283 284 285 286 287 288 289 290 291 292 293 294 295 296 297 298 299 300 301 302 303 304 305 306 307 308 309 310 311 312 313 314 315 0
316 317 318 319 320 321 322 323 324 325 326 327 328 329 330 331 332 333 334 335 336 337 338 339 340 341 342 343 344 345 346 347 348 349 350 0
351 352 353 354 355 356 357 358 359 360 361 362 363 364 365 366 367 368 369 370 371 372 373 374 375 376 377 378 379 380 381 382 383 384 385 0
386 387 388 389 390 391 392 393 394 395 396 397 398 399 400 401 402 403 404 405 406 407 408 409 410 411 412 413 414 415 416 417 418 419 420 0
421 422 423 424 425 426 427 428 429 430 431 432 433 434 435 436 437 438 439 440 441 442 443 444 445 446 447 448 449 450 451 452 453 454 455 0
456 457 458 459 460 461 462 463 464 465 466 467 468 469 470 471 472 473 474 475 476 477 478 479 480 481 482 483 484 485 486 487 488 489 490 0
491 492 493 494 495 496 497 498 499 500 501 502 503 504 505 506 507 508 509 510 511 512 513 514 515 516 517 518 519 520 521 522 523 524 525 0
526 527 528 529 530 531 532 533 534 535 536 537 538 539 540 541 542 543 544 545 546 547 548 549 550 551 552 553 554 555 556 557 558 559 560 0
561 562 563 564 565 566 567 568 569 570 571 572 573 574 575 576 577 578 579 580 581 582 583 584 585 586 587 588 589 590 591 592 593 594 595 0
596 597 598 599 600 601 602 603 604 605 606 607 608 609 610 611 612 613 614 615 616 617 618 619 620 621 622 623 624 625 626 627 628 629 630 0
631 632 633 634 635 636 637 638 639 640 641 642 643 644 645 646 647 648 649 650 651 652 653 654 655 656 657 658 659 660 661 662 663 664 665 0
666 667 668 669 670 671 672 673 674 675 676 677 678 679 680 681 682 683 684 685 686 687 688 689 690 691 692 693 694 695 696 697 698 699 700 0
701 702 703 704 705 706 707 708 709 710 711 712 713 714 715 716 717 718 719 720 721 722 723 724 725 726 727 728 729 730 731 732 733 734 735 0
736 737 738 739 740 741 742 743 744 745 746 747 748 749 750 751 752 753 754 755 756 757 758 759 760 761 762 763 764 765 766 767 768 769 770 0
771 772 773 774 775 776 777 778 779 780 781 782 783 784 785 786 787 788 789 790 791 792 793 794 795 796 797 798 799 800 801 802 803 804 805 0
806 807 808 809 810 811 812 813 814 815 816 817 818 819 820 821 822 823 824 825 826 827 828 829 830 831 832 833 834 835 836 837 838 839 840 0
841 842 843 844 845 846 847 848 849 850 851 852 853 854 855 856 857 858 859 860 861 862 863 864 865 866 867 868 869 870 871 872 873 874 875 0
876 877 878 879 880 881 882 883 884 885 886 887 888 889 890 891 892 893 894 895 896 897 898 899 900 901 902 903 904 905 906 907 908 909 910 0
911 912 913 914 915 916 917 918 919 920 921 922 923 924 925 926 927 928 929 930 931 932 933 934 935 936 937 938 939 940 941 942 943 944 945 0
946 947 948 949 950 951 952 953 954 955 956 957 958 959 960 961 962 963 964 965 966 967 968 969 970 971 972 973 974 975 976 977 978 979 980 0
981 982 983 984 985 986 987 988 989 990 991 992 993 994 995 996 997 998 999 1000 1001 1002 1003 1004 1005 1006 1007 1008 1009 1010 1011 1012 1013 1014 1015 0
1016 1017 1018 1019 1020 1021 1022 1023 1024 1025 1026 1027 1028 1029 1030 1031 1032 1033 1034 1035 1036 1037 1038 1039 1040 1041 1042 1043 1044 1045 1046 1047 1048 1049 1050 0
1051 1052 1053 1054 1055 1056 1057 1058 1059 1060 1061 1062 1063 1064 1065 1066 1067 1068 1069 1070 1071 1072 1073 1074 1075 1076 1077 1078 1079 1080 1081 1082 1083 1084 1085 0
1086 1087 1088 1089 1090 1091 1092 1093 1094 1095 1096 1097 1098 1099 1100 1101 1102 1103 1104 1105 1106 1107 1108 1109 1110 1111 1112 1113 1114 1115 1116 1117 1118 1119 1120 0
1121 1122 1123 1124 1125 1126 1127 1128 1129 1130 1131 1132 1133 1134 1135 1136 1137 1138 1139 1140 1141 1142 1143 1144 1145 1146 1147 1148 1149 1150 1151 1152 1153 1154 1155 0
1156 1157 1158 1159 1160 1161 1162 1163 1164 1165 1166 1167 1168 1169 1170 1171 1172 1173 1174 1175 1176 1177 1178 1179 1180 1181 1182 1183 1184 1185 1186 1187 1188 1189 1190 0
1191 1192 1193 1194 1195 1196 1197 1198 1199 1200 1201 1202 1203 1204 1205 1206 1207 1208 1209 1210 1211 1212 1213 1214 1215 1216 1217 1218 1219 1220 1221 1222 1223 1224 1225 0
1226 1227 1228 1229 1230 1231 1232 1233 1234 1235 1236 1237 1238 1239 1240 1241 1242 1243 1244 1245 1246 1247 1248 1249 1250 1251 1252 1253 1254 1255 1256 1257 1258 1259 1260 0
-1 -36 0
-1 -71 0
-1 -106 0
-1 -141 0
-1 -176 0
-1 -211 0
-1 -246 0
-1 -281 0
-1 -316 0
-1 -351 0
-1 -386 0
-1 -421 0
-1 -456 0
-1 -491 0
-1 -526 0
-1 -561 0
-1 -596 0
-1 -631 0
-1 -666 0
-1 -701 0
-1 -736 0
-1 -771 0
-1 -806 0
-1 -841 0
-1 -876 0
-1 -911 0
-1 -946 0
-1 -981 0
-1 -1016 0
-1 -1051 0
-1 -1086 0
-1 -1121 0
-1 -1156 0
-1 -1191 0
-1 -1226 0
-36 -71 0
-36 -106 0
-36 -141 0
-36 -176 0
-36 -211 0
-36 -246 0
-36 -281 0
-36 -316 0
-36 -351 0
-36 -386 0
-36 -421 0
-36 -456 0
-36 -491 0
-36 -526 0
-36 -561 0
-36 -596 0
-36 -631 0
-36 -666 0
-36 -701 0
-36 -736 0
-36 -771 0
-36 -806 0
-36 -841 0
-36 -876 0
-36 -911 0
-36 -946 0
-36 -981 0
-36 -1016 0
-36 -1051 0
-36 -1086 0
-36 -1121 0
-36 -1156 0
-36 -1191 0
-36 -1226 0
-71 -106 0
-71 -141 0
-71 -176 0
-71 -211 0
-71 -246 0
-71 -281 0
-71 -316 0
-71 -351 0
-71 -386 0
-71 -421 0
-71 -456 0
-71 -491 0
-71 -526 0
-71 -561 0
-71 -596 0
-71 -631 0
-71 -666 0
-71 -701 0
-71 -736 0
-71 -771 0
-71 -806 0
-71 -841 0
-71 -876 0
-71 -911 0
-71 -946 0
-71 -981 0
-71 -1016 0
-71 -1051 0
-71 -1086 0
-71 -1121 0
-71 -1156 0
-71 -1191 0
-71 -1226 0
-106 -141 0
-106 -176 0
-106 -211 0
-106 -246 0
-106 -281 0
-106 -316 0
-106 -351 0
-106 -386 0
-106 -421 0
-106 -456 0
-106 -491 0
-106 -526 0
-106 -561 0
-106 -596 0
-106 -631 0
-106 -666 0
-106 -701 0
-106 -736 0
-106 -771 0
-106 -806 0
-106 -841 0
-106 -876 0
-106 -911 0
-106 -946 0
-106 -981 0
-106 -1016 0
-106 -1051 0
-106 -1086 0
-106 -1121 0
-106 -1156 0
-106 -1191 0
-106 -1226 0
-141 -176 0
-141 -211 0
-141 -246 0
-141 -281 0
-141 -316 0
-141 -351 0
-141 -386 0
-141 -421 0
-141 -456 0
-141 -491 0
-141 -526 0
-141 -561 0
-141 -596 0
-141 -631 0
-141 -666 0
-141 -701 0
-141 -736 0
-141 -771 0
-141 -806 0
-141 -841 0
-141 -876 0
-141 -911 0
-141 -946 0
-141 -981 0
-141 -1016 0
-141 -1051 0
-141 -1086 0
-141 -1121 0
-141 -1156 0
-141 -1191 0
-141 -1226 0
-176 -211 0
-176 -246 0
-176 -281 0
-176 -316 0
-176 -351 0
-176 -386 0
-176 -421 0
-176 -456 0
-176 -491 0
-176 -526 0
-176 -561 0
-176 -596 0
-176 -631 0
-176 -666 0
-176 -701 0
-176 -736 0
-176 -771 0
-176 -806 0
-176 -841 0
-176 -876 0
-176 -911 0
-176 -946 0
-176 -981 0
-176 -1016 0
-176 -1051 0
-176 -1086 0
-176 -1121 0
-176 -1156 0
-176 -1191 0
-176 -1226 0
-211 -246 0
-211 -281 0
-211 -316 0
-211 -351 0
-211 -386 0
-211 -421 0
-211 -456 0
-211 -491 0
-211 -526 0
-211 -561 0
-211 -596 0
-211 -631 0
-211 -666 0
-211 -701 0
-211 -736 0
-211 -771 0
-211 -806 0
-211 -841 0
-211 -876 0
-211 -911 0
-211 -946 0
-211 -981 0
-211 -1016 0
-211 -1051 0
-211 -1086 0
-211 -1121 0
-211 -1156 0
-211 -1191 0
-211 -1226 0
-246 -281 0
-246 -316 0
-246 -351 0
-246 -386 0
-246 -421 0
-246 -456 0
-246 -491 0
-246 -526 0
-246 -561 0
-246 -596 0
-246 -631 0
-246 -666 0
-246 -701 0
-246 -736 0
-246 -771 0
-246 -806 0
-246 -841 0
-246 -876 0
-246 -911 0
-246 -946 0
-246 -981 0
-246 -1016 0
-246 -1051 0
-246 -1086 0
-246 -1121 0
-246 -1156 0
-246 -1191 0
-246 -1226 0
-281 -316 0
-281 -351 0
-281 -386 0
-281 -421 0
-281 -456 0
-281 -491 0
-281 -526 0
-281 -561 0
-281 -596 0
-281 -631 0
-281 -666 0
-281 -701 0
-281 -736 0
-281 -771 0
-281 -806 0
-281 -841 0
-281 -876 0
-281 -911 0
-281 -946 0
-281 -981 0
-281 -1016 0
-281 -1051 0
-281 -1086 0
-281 -1121 0
-281 -1156 0
-281 -1191 0
-281 -1226 0
-316 -351 0
-316 -386 0
-316 -421 0
-316 -456 0
-316 -491 0
-316 -526 0
-316 -561 0
-316 -596 0
-316 -631 0
-316 -666 0
-316 -701 0
-316 -736 0
-316 -771 0
-316 -806 0
-316 -841 0
-316 -876 0
-316 -911 0
-316 -946 0
-316 -981 0
-316 -1016 0
-316 -1051 0
-316 -1086 0
-316 -1121 0
-316 -1156 0
-316 -1191 0
-316 -1226 0
-351 -386 0
-351 -421 0
-351 -456 0
-351 -491 0
-351 -526 0
-351 -561 0
-351 -596 0
-351 -631 0
-351 -666 0
-351 -701 0
-351 -736 0
-351 -771 0
-351 -806 0
-351 -841 0
-351 -876 0
-351 -911 0
-351 -946 0
-351 -981 0
-351 -1016 0
-351 -1051 0
-351 -1086 0
-351 -1121 0
-351 -1156 0
-351 -1191 0
-351 -1226 0
-386 -421 0
-386 -456 0
-386 -491 0
-386 -526 0
-386 -561 0
-386 -596 0
-386 -631 0
-386 -666 0
-386 -701 0
-386 -736 0
-386 -771 0
-386 -806 0
-386 -841 0
-386 -876 0
-386 -911 0
-386 -946 0
-386 -981 0
-386 -1016 0
-386 -1051 0
-386 -1086 0
-386 -1121 0
-386 -1156 0
-386 -1191 0
-386 -1226 0
-421 -456 0
-421 -491 0
-421 -526 0
-421 -561 0
-421 -596 0
-421 -631 0
-421 -666 0
-421 -701 0
-421 -736 0
-421 -771 0
-421 -806 0
-421 -841 0
-421 -876 0
-421 -911 0
-421 -946 0
-421 -981 0
-421 -1016 0
-421 -1051 0
-421 -1086 0
-421 -1121 0
-421 -1156 0
-421 -1191 0
-421 -1226 0
-456 -491 0
-456 -526 0
-456 -561 0
-456 -596 0
-456 -631 0
-456 -666 0
-456 -701 0
-456 -736 0
-456 -771 0
-456 -806 0
-456 -841 0
-456 -876 0
-456 -911 0
-456 -946 0
-456 -981 0
-456 -1016 0
-456 -1051 0
-456 -1086 0
-456 -1121 0
-456 -1156 0
-456 -1191 0
-456 -1226 0
-491 -526 0
-491 -561 0
-491 -596 0
-491 -631 0
-491 -666 0
-491 -701 0
-491 -736 0
-491 -771 0
-491 -806 0
-491 -841 0
-491 -876 0
-491 -911 0
-491 -946 0
-491 -981 0
-491 -1016 0
-491 -1051 0
-491 -1086 0
-491 -1121 0
-491 -1156 0
-491 -1191 0
-491 -1226 0
-526 -561 0
-526 -596 0
-526 -631 0
-526 -666 0
-526 -701 0
-526 -736 0
-526 -771 0
-526 -806 0
-526 -841 0
-526 -876 0
-526 -911 0
-526 -946 0
-526 -981 0
-526 -1016 0
-526 -1051 0
-526 -1086 0
-526 -1121 0
-526 -1156 0
-526 -1191 0
-526 -1226 0
-561 -596 0
-561 -631 0
-561 -666 0
-561 -701 0
-561 -736 0
-561 -771 0
-561 -806 0
-561 -841 0
-561 -876 0
-561 -911 0
-561 -946 0
-561 -981 0
-561 -1016 0
-561 -1051 0
-561 -1086 0
-561 -1121 0
-561 -1156 0
-561 -1191 0
-561 -1226 0
-596 -631 0
-596 -666 0
-596 -701 0
-596 -736 0
-596 -771 0
-596 -806 0
-596 -841 0
-596 -876 0
-596 -911 0
-596 -946 0
-596 -981 0
-596 -1016 0
-596 -1051 0
-596 -1086 0
-596 -1121 0
-596 -1156 0
-596 -1191 0
-596 -1226 0
-631 -666 0
-631 -701 0
-631 -736 0
-631 -771 0
-631 -806 0
-631 -841 0
-631 -876 0
-631 -911 0
-631 -946 0
-631 -981 0
-631 -1016 0
-631 -1051 0
-631 -1086 0
-631 -1121 0
-631 -1156 0
-631 -1191 0
-631 -1226 0
-666 -701 0
-666 -736 0
-666 -771 0
-666 -806 0
-666 -841 0
-666 -876 0
-666 -911 0
-666 -946 0
-666 -981 0
-666 -1016 0
-666 -1051 0
-666 -1086 0
-666 -1121 0
-666 -1156 0
-666 -1191 0
-666 -1226 0
-701 -736 0
-701 -771 0
-701 -806 0
-701 -841 0
-701 -876 0
-701 -911 0
-701 -946 0
-701 -981 0
-701 -1016 0
-701 -1051 0
-701 -1086 0
-701 -1121 0
-701 -1156 0
-701 -1191 0
-701 -1226 0
-736 -771 0
-736 -806 0
-736 -841 0
-736 -876 0
-736 -911 0
-736 -946 0
-736 -981 0
-736 -1016 0
-736 -1051 0
-736 -1086 0
-736 -1121 0
-736 -1156 0
-736 -1191 0
-736 -1226 0
-771 -806 0
-771 -841 0
-771 -876 0
-771 -911 0
-771 -946 0
-771 -981 0
-771 -1016 0
-771 -1051 0
-771 -1086 0
-771 -1121 0
-771 -1156 0
-771 -1191 0
-771 -1226 0
-806 -841 0
-806 -876 0
-806 -911 0
-806 -946 0
-806 -981 0
-806 -1016 0
-806 -1051 0
-806 -1086 0
-806 -1121 0
-806 -1156 0
-806 -1191 0
-806 -1226 0
-841 -876 0
-841 -911 0
-841 -946 0
-841 -981 0
-841 -1016 0
-841 -1051 0
-841 -1086 0
-841 -1121 0
-841 -1156 0
-841 -1191 0
-841 -1226 0
-876 -911 0
-876 -946 0
-876 -981 0
-876 -1016 0
-876 -1051 0
-876 -1086 0
-876 -1121 0
-876 -1156 0
-876 -1191 0
-876 -1226 0
-911 -946 0
-911 -981 0
-911 -1016 0
-911 -1051 0
-911 -1086 0
-911 -1121 0
-911 -1156 0
-911 -1191 0
-911 -1226 0
-946 -981 0
-946 -1016 0
-946 -1051 0
-946 -1086 0
-946 -1121 0
-946 -1156 0
-946 -1191 0
-946 -1226 0
-981 -1016 0
-981 -1051 0
-981 -1086 0
-981 -1121 0
-981 -1156 0
-981 -1191 0
-981 -1226 0
-1016 -1051 0
-1016 -1086 0
-1016 -1121 0
-1016 -1156 0
-1016 -1191 0
-1016 -1226 0
-1051 -1086 0
-1051 -1121 0
-1051 -1156 0
-1051 -1191 0
-1051 -1226 0
-1086 -1121 0
-1086 -1156 0
-1086 -1191 0
-1086 -1226 0
-1121 -1156 0
-1121 -1191 0
-1121 -1226 0
-1156 -1191 0
-1156 -1226 0
-1191 -1226 0
-2 -37 0
-2 -72 0
-2 -107 0
-2 -142 0
-2 -177 0
-2 -212 0
-2 -247 0
-2 -282 0
-2 -317 0
-2 -352 0
-2 -387 0
-2 -422 0
-2 -457 0
-2 -492 0
-2 -527 0
-2 -562 0
-2 -597 0
-2 -632 0
-2 -667 0
-2 -702 0
-2 -737 0
-2 -772 0
-2 -807 0
-2 -842 0
-2 -877 0
-2 -912 0
-2 -947 0
-2 -982 0
-2 -1017 0
-2 -1052 0
-2 -1087 0
-2 -1122 0
-2 -1157 0
-2 -1192 0
-2 -1227 0
-37 -72 0
-37 -107 0
-37 -142 0
-37 -177 0
-37 -212 0
-37 -247 0
-37 -282 0
-37 -317 0
-37 -352 0
-37 -387 0
-37 -422 0
-37 -457 0
-37 -492 0
-37 -527 0
-37 -562 0
-37 -597 0
-37 -632 0
-37 -667 0
-37 -702 0
-37 -737 0
-37 -772 0
-37 -807 0
-37 -842 0
-37 -877 0
-37 -912 0
-37 -947 0
-37 -982 0
-37 -1017 0
-37 -1052 0
-37 -1087 0
-37 -1122 0
-37 -1157 0
-37 -1192 0
-37 -1227 0
-72 -107 0
-72 -142 0
-72 -177 0
-72 -212 0
-72 -247 0
-72 -282 0
-72 -317 0
-72 -352 0
-72 -387 0
-72 -422 0
-72 -457 0
-72 -492 0
-72 -527 0
-72 -562 0
-72 -597 0
-72 -632 0
-72 -667 0
-72 -702 0
-72 -737 0
-72 -772 0
-72 -807 0
-72 -842 0
-72 -877 0
-72 -912 0
-72 -947 0
-72 -982 0
-72 -1017 0
-72 -1052 0
-72 -1087 0
-72 -1122 0
-72 -1157 0
-72 -1192 0
-72 -1227 0
-107 -142 0
-107 -177 0
-107 -212 0
-107 -247 0
-107 -282 0
-107 -317 0
-107 -352 0
-107 -387 0
-107 -422 0
-107 -457 0
-107 -492 0
-107 -527 0
-107 -562 0
-107 -597 0
-107 -632 0
-107 -667 0
-107 -702 0
-107 -737 0
-107 -772 0
-107 -807 0
-107 -842 0
-107 -877 0
-107 -912 0
-107 -947 0
-107 -982 0
-107 -1017 0
-107 -1052 0
-107 -1087 0
-107 -1122 0
-107 -1157 0
-107 -1192 0
-107 -1227 0
-142 -177 0
-142 -212 0
-142 -247 0
-142 -282 0
-142 -317 0
-142 -352 0
-142 -387 0
-142 -422 0
-142 -457 0
-142 -492 0
-142 -527 0
-142 -562 0
-142 -597 0
-142 -632 0
-142 -667 0
-142 -702 0
-142 -737 0
-142 -772 0
-142 -807 0
-142 -842 0
-142 -877 0
-142 -912 0
-142 -947 0
-142 -982 0
-142 -1017 0
-142 -1052 0
-142 -1087 0
-142 -1122 0
-142 -1157 0
-142 -1192 0
-142 -1227 0
-177 -212 0
-177 -247 0
-177 -282 0
-177 -317 0
-177 -352 0
-177 -387 0
-177 -422 0
-177 -457 0
-177 -492 0
-177 -527 0
-177 -562 0
-177 -597 0
-177 -632 0
-177 -667 0
-177 -702 0
-177 -737 0
-177 -772 0
-177 -807 0
-177 -842 0
-177 -877 0
-177 -912 0
-177 -947 0
-177 -982 0
-177 -1017 0
-177 -1052 0
-177 -1087 0
-177 -1122 0
-177 -1157 0
-177 -1192 0
-177 -1227 0
-212 -247 0
-212 -282 0
-212 -317 0
-212 -352 0
-212 -387 0
-212 -422 0
-212 -457 0
-212 -492 0
-212 -527 0
-212 -562 0
-212 -597 0
-212 -632 0
-212 -667 0
-212 -702 0
-212 -737 0
-212 -772 0
-212 -807 0
-212 -842 0
-212 -877 0
-212 -912 0
-212 -947 0
-212 -982 0
-212 -1017 0
-212 -1052 0
-212 -1087 0
-212 -1122 0
-212 -1157 0
-212 -1192 0
-212 -1227 0
-247 -282 0
-247 -317 0
-247 -352 0
-247 -387 0
-247 -422 0
-247 -457 0
-247 -492 0
-247 -527 0
-247 -562 0
-247 -597 0
-247 -632 0
-247 -667 0
-247 -702 0
-247 -737 0
-247 -772 0
-247 -807 0
-247 -842 0
-247 -877 0
-247 -912 0
-247 -947 0
-247 -982 0
-247 -1017 0
-247 -1052 0
-247 -1087 0
-247 -1122 0
-247 -1157 0
-247 -1192 0
-247 -1227 0
-282 -317 0
-282 -352 0
-282 -387 0
-282 -422 0
-282 -457 0
-282 -492 0
-282 -527 0
-282 -562 0
-282 -597 0
-282 -632 0
-282 -667 0
-282 -702 0
-282 -737 0
-282 -772 0
-282 -807 0
-282 -842 0
-282 -877 0
-282 -912 0
-282 -947 0
-282 -982 0
-282 -1017 0
-282 -1052 0
-282 -1087 0
-282 -1122 0
-282 -1157 0
-282 -1192 0
-282 -1227 0
-317 -352 0
-317 -387 0
-317 -422 0
-317 -457 0
-317 -492 0
-317 -527 0
-317 -562 0
-317 -597 0
-317 -632 0
-317 -667 0
-317 -702 0
-317 -737 0
-317 -772 0
-317 -807 0
-317 -842 0
-317 -877 0
-317 -912 0
-317 -947 0
-317 -982 0
-317 -1017 0
-317 -1052 0
-317 -1087 0
-317 -1122 0
-317 -1157 0
-317 -1192 0
-317 -1227 0
-352 -387 0
-352 -422 0
-352 -457 0
-352 -492 0
-352 -527 0
-352 -562 0
-352 -597 0
-352 -632 0
-352 -667 0
-352 -702 0
-352 -737 0
-352 -772 0
-352 -807 0
-352 -842 0
-352 -877 0
-352 -912 0
-352 -947 0
-352 -982 0
-352 -1017 0
-352 -1052 0
-352 -1087 0
-352 -1122 0
-352 -1157 0
-352 -1192 0
-352 -1227 0
-387 -422 0
-387 -457 0
-387 -492 0
-387 -527 0
-387 -562 0
-387 -597 0
-387 -632 0
-387 -667 0
-387 -702 0
-387 -737 0
-387 -772 0
-387 -807 0
-387 -842 0
-387 -877 0
-387 -912 0
-387 -947 0
-387 -982 0
-387 -1017 0
-387 -1052 0
-387 -1087 0
-387 -1122 0
-387 -1157 0
-387 -1192 0
-387 -1227 0
-422 -457 0
-422 -492 0
-422 -527 0
-422 -562 0
-422 -597 0
-422 -632 0
-422 -667 0
-422 -702 0
-422 -737 0
-422 -772 0
-422 -807 0
-422 -842 0
-422 -877 0
-422 -912 0
-422 -947 0
-422 -982 0
-422 -1017 0
-422 -1052 0
-422 -1087 0
-422 -1122 0
-422 -1157 0
-422 -1192 0
-422 -1227 0
-457 -492 0
-457 -527 0
-457 -562 0
-457 -597 0
-457 -632 0
-457 -667 0
-457 -702 0
-457 -737 0
-457 -772 0
-457 -807 0
-457 -842 0
-457 -877 0
-457 -912 0
-457 -947 0
-457 -982 0
-457 -1017 0
-457 -1052 0
-457 -1087 0
-457 -1122 0
-457 -1157 0
-457 -1192 0
-457 -1227 0
-492 -527 0
-492 -562 0
-492 -597 0
-492 -632 0
-492 -667 0
-492 -702 0
-492 -737 0
-492 -772 0
-492 -807 0
-492 -842 0
-492 -877 0
-492 -912 0
-492 -947 0
-492 -982 0
-492 -1017 0
-492 -1052 0
-492 -1087 0
-492 -1122 0
-492 -1157 0
-492 -1192 0
-492 -1227 0
-527 -562 0
-527 -597 0
-527 -632 0
-527 -667 0
-527 -702 0
-527 -737 0
-527 -772 0
-527 -807 0
-527 -842 0
-527 -877 0
-527 -912 0
-527 -947 0
-527 -982 0
-527 -1017 0
-527 -1052 0
-527 -1087 0
-527 -1122 0
-527 -1157 0
-527 -1192 0
-527 -1227 0
-562 -597 0
-562 -632 0
-562 -667 0
-562 -702 0
-562 -737 0
-562 -772 0
-562 -807 0
-562 -842 0
-562 -877 0
-562 -912 0
-562 -947 0
-562 -982 0
-562 -1017 0
-562 -1052 0
-562 -1087 0
-562 -1122 0
-562 -1157 0
-562 -1192 0
-562 -1227 0
-597 -632 0
-597 -667 0
-597 -702 0
-597 -737 0
-597 -772 0
-597 -807 0
-597 -842 0
-597 -877 0
-597 -912 0
-597 -947 0
-597 -982 0
-597 -1017 0
-597 -1052 0
-597 -1087 0
-597 -1122 0
-597 -1157 0
-597 -1192 0
-597 -1227 0
-632 -667 0
-632 -702 0
-632 -737 0
-632 -772 0
-632 -807 0
-632 -842 0
-632 -877 0
-632 -912 0
-632 -947 0
-632 -982 0
-632 -1017 0
-632 -1052 0
-632 -1087 0
-632 -1122 0
-632 -1157 0
-632 -1192 0
-632 -1227 0
-667 -702 0
-667 -737 0
-667 -772 0
-667 -807 0
-667 -842 0
-667 -877 0
-667 -912 0
-667 -947 0
-667 -982 0
-667 -1017 0
-667 -1052 0
-667 -1087 0
-667 -1122 0
-667 -1157 0
-667 -1192 0
-667 -1227 0
-702 -737 0
-702 -772 0
-702 -807 0
-702 -842 0
-702 -877 0
-702 -912 0
-702 -947 0
-702 -982 0
-702 -1017 0
-702 -1052 0
-702 -1087 0
-702 -1122 0
-702 -1157 0
-702 -1192 0
-702 -1227 0
-737 -772 0
-737 -807 0
-737 -842 0
-737 -877 0
-737 -912 0
-737 -947 0
-737 -982 0
-737 -1017 0
-737 -1052 0
-737 -1087 0
-737 -1122 0
-737 -1157 0
-737 -1192 0
-737 -1227 0
-772 -807 0
-772 -842 0
-772 -877 0
-772 -912 0
-772 -947 0
-772 -982 0
-772 -1017 0
-772 -1052 0
-772 -1087 0
-772 -1122 0
-772 -1157 0
-772 -1192 0
-772 -1227 0
-807 -842 0
-807 -877 0
-807 -912 0
-807 -947 0
-807 -982 0
-807 -1017 0
-807 -1052 0
-807 -1087 0
-807 -1122 0
-807 -1157 0
-807 -1192 0
-807 -1227 0
-842 -877 0
-842 -912 0
-842 -947 0
-842 -982 0
-842 -1017 0
-842 -1052 0
-842 -1087 0
-842 -1122 0
-842 -1157 0
-842 -1192 0
-842 -1227 0
-877 -912 0
-877 -947 0
-877 -982 0
-877 -1017 0
-877 -1052 0
-877 -1087 0
-877 -1122 0
-877 -1157 0
-877 -1192 0
-877 -1227 0
-912 -947 0
-912 -982 0
-912 -1017 0
-912 -1052 0
-912 -1087 0
-912 -1122 0
-912 -1157 0
-912 -1192 0
-912 -1227 0
-947 -982 0
-947 -1017 0
-947 -1052 0
-947 -1087 0
-947 -1122 0
-947 -1157 0
-947 -1192 0
-947 -1227 0
-982 -1017 0
-982 -1052 0
-982 -1087 0
-982 -1122 0
-982 -1157 0
-982 -1192 0
-982 -1227 0
-1017 -1052 0
-1017 -1087 0
-1017 -1122 0
-1017 -1157 0
-1017 -1192 0
-1017 -1227 0
-1052 -1087 0
-1052 -1122 0
-1052 -1157 0
-1052 -1192 0
-1052 -1227 0
-1087 -1122 0
-1087 -1157 0
-1087 -1192 0
-1087 -1227 0
-1122 -1157 0
-1122 -1192 0
-1122 -1227 0
-1157 -1192 0
-1157 -1227 0
-1192 -1227 0
-3 -38 0
-3 -73 0
-3 -108 0
-3 -143 0
-3 -178 0
-3 -213 0
-3 -248 0
-3 -283 0
-3 -318 0
-3 -353 0
-3 -388 0
-3 -423 0
-3 -458 0
-3 -493 0
-3 -528 0
-3 -563 0
-3 -598 0
-3 -633 0
-3 -668 0
-3 -703 0
-3 -738 0
-3 -773 0
-3 -808 0
-3 -843 0
-3 -878 0
-3 -913 0
-3 -948 0
-3 -983 0
-3 -1018 0
-3 -1053 0
-3 -1088 0
-3 -1123 0
-3 -1158 0
-3 -1193 0
-3 -1228 0
-38 -73 0
-38 -108 0
-38 -143 0
-38 -178 0
-38 -213 0
-38 -248 0
-38 -283 0
-38 -318 0
-38 -353 0
-38 -388 0
-38 -423 0
-38 -458 0
-38 -493 0
-38 -528 0
-38 -563 0
-38 -598 0
-38 -633 0
-38 -668 0
-38 -703 0
-38 -738 0
-38 -773 0
-38 -808 0
-38 -843 0
-38 -878 0
-38 -913 0
-38 -948 0
-38 -983 0
-38 -1018 0
-38 -1053 0
-38 -1088 0
-38 -1123 0
-38 -1158 0
-38 -1193 0
-38 -1228 0
-73 -108 0
-73 -143 0
-73 -178 0
-73 -213 0
-73 -248 0
-73 -283 0
-73 -318 0
-73 -353 0
-73 -388 0
-73 -423 0
-73 -458 0
-73 -493 0
-73 -528 0
-73 -563 0
-73 -598 0
-73 -633 0
-73 -668 0
-73 -703 0
-73 -738 0
-73 -773 0
-73 -808 0
-73 -843 0
-73 -878 0
-73 -913 0
-73 -948 0
-73 -983 0
-73 -1018 0
-73 -1053 0
-73 -1088 0
-73 -1123 0
-73 -1158 0
-73 -1193 0
-73 -1228 0
-108 -143 0
-108 -178 0
-108 -213 0
-108 -248 0
-108 -283 0
-108 -318 0
-108 -353 0
-108 -388 0
-108 -423 0
-108 -458 0
-108 -493 0
-108 -528 0
-108 -563 0
-108 -598 0
-108 -633 0
-108 -668 0
-108 -703 0
-108 -738 0
-108 -773 0
-108 -808 0
-108 -843 0
-108 -878 0
-108 -913 0
-108 -948 0
-108 -983 0
-108 -1018 0
-108 -1053 0
-108 -1088 0
-108 -1123 0
-108 -1158 0
-108 -1193 0
-108 -1228 0
-143 -178 0
-143 -213 0
-143 -248 0
-143 -283 0
-143 -318 0
-143 -353 0
-143 -388 0
-143 -423 0
-143 -458 0
-143 -493 0
-143 -528 0
-143 -563 0
-143 -598 0
-143 -633 0
-143 -668 0
-143 -703 0
-143 -738 0
-143 -773 0
-143 -808 0
-143 -843 0
-143 -878 0
-143 -913 0
-143 -948 0
-143 -983 0
-143 -1018 0
-143 -1053 0
-143 -1088 0
-143 -1123 0
-143 -1158 0
-143 -1193 0
-143 -1228 0
-178 -213 0
-178 -248 0
-178 -283 0
-178 -318 0
-178 -353 0
-178 -388 0
-178 -423 0
-178 -458 0
-178 -493 0
-178 -528 0
-178 -563 0
-178 -598 0
-178 -633 0
-178 -668 0
-178 -703 0
-178 -738 0
-178 -773 0
-178 -808 0
-178 -843 0
-178 -878 0
-178 -913 0
-178 -948 0
-178 -983 0
-178 -1018 0
-178 -1053 0
-178 -1088 0
-178 -1123 0
-178 -1158 0
-178 -1193 0
-178 -1228 0
-213 -248 0
-213 -283 0
-213 -318 0
-213 -353 0
-213 -388 0
-213 -423 0
-213 -458 0
-213 -493 0
-213 -528 0
-213 -563 0
-213 -598 0
-213 -633 0
-213 -668 0
-213 -703 0
-213 -738 0
-213 -773 0
-213 -808 0
-213 -843 0
-213 -878 0
-213 -913 0
-213 -948 0
-213 -983 0
-213 -1018 0
-213 -1053 0
-213 -1088 0
-213 -1123 0
-213 -1158 0
-213 -1193 0
-213 -1228 0
-248 -283 0
-248 -318 0
-248 -353 0
-248 -388 0
-248 -423 0
-248 -458 0
-248 -493 0
-248 -528 0
-248 -563 0
-248 -598 0
-248 -633 0
-248 -668 0
-248 -703 0
-248 -738 0
-248 -773 0
-248 -808 0
-248 -843 0
-248 -878 0
-248 -913 0
-248 -948 0
-248 -983 0
-248 -1018 0
-248 -1053 0
-248 -1088 0
-248 -1123 0
-248 -1158 0
-248 -1193 0
-248 -1228 0
-283 -318 0
-283 -353 0
-283 -388 0
-283 -423 0
-283 -458 0
-283 -493 0
-283 -528 0
-283 -563 0
-283 -598 0
-283 -633 0
-283 -668 0
-283 -703 0
-283 -738 0
-283 -773 0
-283 -808 0
-283 -843 0
-283 -878 0
-283 -913 0
-283 -948 0
-283 -983 0
-283 -1018 0
-283 -1053 0
-283 -1088 0
-283 -1123 0
-283 -1158 0
-283 -1193 0
-283 -1228 0
-318 -353 0
-318 -388 0
-318 -423 0
-318 -458 0
-318 -493 0
-318 -528 0
-318 -563 0
-318 -598 0
-318 -633 0
-318 -668 0
-318 -703 0
-318 -738 0
-318 -773 0
-318 -808 0
-318 -843 0
-318 -878 0
-318 -913 0
-318 -948 0
-318 -983 0
-318 -1018 0
-318 -1053 0
-318 -1088 0
-318 -1123 0
-318 -1158 0
-318 -1193 0
-318 -1228 0
-353 -388 0
-353 -423 0
-353 -458 0
-353 -493 0
-353 -528 0
-353 -563 0
-353 -598 0
-353 -633 0
-353 -668 0
-353 -703 0
-353 -738 0
-353 -773 0
-353 -808 0
-353 -843 0
-353 -878 0
-353 -913 0
-353 -948 0
-353 -983 0
-353 -1018 0
-353 -1053 0
-353 -1088 0
-353 -1123 0
-353 -1158 0
-353 -1193 0
-353 -1228 0
-388 -423 0
-388 -458 0
-388 -493 0
-388 -528 0
-388 -563 0
-388 -598 0
-388 -633 0
-388 -668 0
-388 -703 0
-388 -738 0
-388 -773 0
-388 -808 0
-388 -843 0
-388 -878 0
-388 -913 0
-388 -948 0
-388 -983 0
-388 -1018 0
-388 -1053 0
-388 -1088 0
-388 -1123 0
-388 -1158 0
-388 -1193 0
-388 -1228 0
-423 -458 0
-423 -493 0
-423 -528 0
-423 -563 0
-423 -598 0
-423 -633 0
-423 -668 0
-423 -703 0
-423 -738 0
-423 -773 0
-423 -808 0
-423 -843 0
-423 -878 0
-423 -913 0
-423 -948 0
-423 -983 0
-423 -1018 0
-423 -1053 0
-423 -1088 0
-423 -1123 0
-423 -1158 0
-423 -1193 0
-423 -1228 0
-458 -493 0
-458 -528 0
-458 -563 0
-458 -598 0
-458 -633 0
-458 -668 0
-458 -703 0
-458 -738 0
-458 -773 0
-458 -808 0
-458 -843 0
-458 -878 0
-458 -913 0
-458 -948 0
-458 -983 0
-458 -1018 0
-458 -1053 0
-458 -1088 0
-458 -1123 0
-458 -1158 0
-458 -1193 0
-458 -1228 0
-493 -528 0
-493 -563 0
-493 -598 0
-493 -633 0
-493 -668 0
-493 -703 0
-493 -738 0
-493 -773 0
-493 -808 0
-493 -843 0
-493 -878 0
-493 -913 0
-493 -948 0
-493 -983 0
-493 -1018 0
-493 -1053 0
-493 -1088 0
-493 -1123 0
-493 -1158 0
-493 -1193 0
-493 -1228 0
-528 -563 0
-528 -598 0
-528 -633 0
-528 -668 0
-528 -703 0
-528 -738 0
-528 -773 0
-528 -808 0
-528 -843 0
-528 -878 0
-528 -913 0
-528 -948 0
-528 -983 0
-528 -1018 0
-528 -1053 0
-528 -1088 0
-528 -1123 0
-528 -1158 0
-528 -1193 0
-528 -1228 0
-563 -598 0
-563 -633 0
-563 -668 0
-563 -703 0
-563 -738 0
-563 -773 0
-563 -808 0
-563 -843 0
-563 -878 0
-563 -913 0
-563 -948 0
-563 -983 0
-563 -1018 0
-563 -1053 0
-563 -1088 0
-563 -1123 0
-563 -1158 0
-563 -1193 0
-563 -1228 0
-598 -633 0
-598 -668 0
-598 -703 0
-598 -738 0
-598 -773 0
-598 -808 0
-598 -843 0
-598 -878 0
-598 -913 0
-598 -948 0
-598 -983 0
-598 -1018 0
-598 -1053 0
-598 -1088 0
-598 -1123 0
-598 -1158 0
-598 -1193 0
-598 -1228 0
-633 -668 0
-633 -703 0
-633 -738 0
-633 -773 0
-633 -808 0
-633 -843 0
-633 -878 0
-633 -913 0
-633 -948 0
-633 -983 0
-633 -1018 0
-633 -1053 0
-633 -1088 0
-633 -1123 0
-633 -1158 0
-633 -1193 0
-633 -1228 0
-668 -703 0
-668 -738 0
-668 -773 0
-668 -808 0
-668 -843 0
-668 -878 0
-668 -913 0
-668 -948 0
-668 -983 0
-668 -1018 0
-668 -1053 0
-668 -1088 0
-668 -1123 0
-668 -1158 0
-668 -1193 0
-668 -1228 0
-703 -738 0
-703 -773 0
-703 -808 0
-703 -843 0
-703 -878 0
-703 -913 0
-703 -948 0
-703 -983 0
-703 -1018 0
-703 -1053 0
-703 -1088 0
-703 -1123 0
-703 -1158 0
-703 -1193 0
-703 -1228 0
-738 -773 0
-738 -808 0
-738 -843 0
-738 -878 0
-738 -913 0
-738 -948 0
-738 -983 0
-738 -1018 0
-738 -1053 0
-738 -1088 0
-738 -1123 0
-738 -1158 0
-738 -1193 0
-738 -1228 0
-773 -808 0
-773 -843 0
-773 -878 0
-773 -913 0
-773 -948 0
-773 -983 0
-773 -1018 0
-773 -1053 0
-773 -1088 0
-773 -1123 0
-773 -1158 0
-773 -1193 0
-773 -1228 0
-808 -843 0
-808 -878 0
-808 -913 0
-808 -948 0
-808 -983 0
-808 -1018 0
-808 -1053 0
-808 -1088 0
-808 -1123 0
-808 -1158 0
-808 -1193 0
-808 -1228 0
-843 -878 0
-843 -913 0
-843 -948 0
-843 -983 0
-843 -1018 0
-843 -1053 0
-843 -1088 0
-843 -1123 0
-843 -1158 0
-843 -1193 0
-843 -1228 0
-878 -913 0
-878 -948 0
-878 -983 0
-878 -1018 0
-878 -1053 0
-878 -1088 0
-878 -1123 0
-878 -1158 0
-878 -1193 0
-878 -1228 0
-913 -948 0
-913 -983 0
-913 -1018 0
-913 -1053 0
-913 -1088 0
-913 -1123 0
-913 -1158 0
-913 -1193 0
-913 -1228 0
-948 -983 0
-948 -1018 0
-948 -1053 0
-948 -1088 0
-948 -1123 0
-948 -1158 0
-948 -1193 0
-948 -1228 0
-983 -1018 0
-983 -1053 0
-983 -1088 0
-983 -1123 0
-983 -1158 0
-983 -1193 0
-983 -1228 0
-1018 -1053 0
-1018 -1088 0
-1018 -1123 0
-1018 -1158 0
-1018 -1193 0
-1018 -1228 0
-1053 -1088 0
-1053 -1123 0
-1053 -1158 0
-1053 -1193 0
-1053 -1228 0
-1088 -1123 0
-1088 -1158 0
-1088 -1193 0
-1088 -1228 0
-1123 -1158 0
-1123 -1193 0
-1123 -1228 0
-1158 -1193 0
-1158 -1228 0
-1193 -1228 0
-4 -39 0
-4 -74 0
-4 -109 0
-4 -144 0
-4 -179 0
-4 -214 0
-4 -249 0
-4 -284 0
-4 -319 0
-4 -354 0
-4 -389 0
-4 -424 0
-4 -459 0
-4 -494 0
-4 -529 0
-4 -564 0
-4 -599 0
-4 -634 0
-4 -669 0
-4 -704 0
-4 -739 0
-4 -774 0
-4 -809 0
-4 -844 0
-4 -879 0
-4 -914 0
-4 -949 0
-4 -984 0
-4 -1019 0
-4 -1054 0
-4 -1089 0
-4 -1124 0
-4 -1159 0
-4 -1194 0
-4 -1229 0
-39 -74 0
-39 -109 0
-39 -144 0
-39 -179 0
-39 -214 0
-39 -249 0
-39 -284 0
-39 -319 0
-39 -354 0
-39 -389 0
-39 -424 0
-39 -459 0
-39 -494 0
-39 -529 0
-39 -564 0
-39 -599 0
-39 -634 0
-39 -669 0
-39 -704 0
-39 -739 0
-39 -774 0
-39 -809 0
-39 -844 0
-39 -879 0
-39 -914 0
-39 -949 0
-39 -984 0
-39 -1019 0
-39 -1054 0
-39 -1089 0
-39 -1124 0
-39 -1159 0
-39 -1194 0
-39 -1229 0
-74 -109 0
-74 -144 0
-74 -179 0
-74 -214 0
-74 -249 0
-74 -284 0
-74 -319 0
-74 -354 0
-74 -389 0
-74 -424 0
-74 -459 0
-74 -494 0
-74 -529 0
-74 -564 0
-74 -599 0
-74 -634 0
-74 -669 0
-74 -704 0
-74 -739 0
-74 -774 0
-74 -809 0
-74 -844 0
-74 -879 0
-74 -914 0
-74 -949 0
-74 -984 0
-74 -1019 0
-74 -1054 0
-74 -1089 0
-74 -1124 0
-74 -1159 0
-74 -1194 0
-74 -1229 0
-109 -144 0
-109 -179 0
-109 -214 0
-109 -249 0
-109 -284 0
-109 -319 0
-109 -354 0
-109 -389 0
-109 -424 0
-109 -459 0
-109 -494 0
-109 -529 0
-109 -564 0
-109 -599 0
-109 -634 0
-109 -669 0
-109 -704 0
-109 -739 0
-109 -774 0
-109 -809 0
-109 -844 0
-109 -879 0
-109 -914 0
-109 -949 0
-109 -984 0
-109 -1019 0
-109 -1054 0
-109 -1089 0
-109 -1124 0
-109 -1159 0
-109 -1194 0
-109 -1229 0
-144 -179 0
-144 -214 0
-144 -249 0
-144 -284 0
-144 -319 0
-144 -354 0
-144 -389 0
-144 -424 0
-144 -459 0
-144 -494 0
-144 -529 0
-144 -564 0
-144 -599 0
-144 -634 0
-144 -669 0
-144 -704 0
-144 -739 0
-144 -774 0
-144 -809 0
-144 -844 0
-144 -879 0
-144 -914 0
-144 -949 0
-144 -984 0
-144 -1019 0
-144 -1054 0
-144 -1089 0
-144 -1124 0
-144 -1159 0
-144 -1194 0
-144 -1229 0
-179 -214 0
-179 -249 0
-179 -284 0
-179 -319 0
-179 -354 0
-179 -389 0
-179 -424 0
-179 -459 0
-179 -494 0
-179 -529 0
-179 -564 0
-179 -599 0
-179 -634 0
-179 -669 0
-179 -704 0
-179 -739 0
-179 -774 0
-179 -809 0
-179 -844 0
-179 -879 0
-179 -914 0
-179 -949 0
-179 -984 0
-179 -1019 0
-179 -1054 0
-179 -1089 0
-179 -1124 0
-179 -1159 0
-179 -1194 0
-179 -1229 0
-214 -249 0
-214 -284 0
-214 -319 0
-214 -354 0
-214 -389 0
-214 -424 0
-214 -459 0
-214 -494 0
-214 -529 0
-214 -564 0
-214 -599 0
-214 -634 0
-214 -669 0
-214 -704 0
-214 -739 0
-214 -774 0
-214 -809 0
-214 -844 0
-214 -879 0
-214 -914 0
-214 -949 0
-214 -984 0
-214 -1019 0
-214 -1054 0
-214 -1089 0
-214 -1124 0
-214 -1159 0
-214 -1194 0
-214 -1229 0
-249 -284 0
-249 -319 0
-249 -354 0
-249 -389 0
-249 -424 0
-249 -459 0
-249 -494 0
-249 -529 0
-249 -564 0
-249 -599 0
-249 -634 0
-249 -669 0
-249 -704 0
-249 -739 0
-249 -774 0
-249 -809 0
-249 -844 0
-249 -879 0
-249 -914 0
-249 -949 0
-249 -984 0
-249 -1019 0
-249 -1054 0
-249 -1089 0
-249 -1124 0
-249 -1159 0
-249 -1194 0
-249 -1229 0
-284 -319 0
-284 -354 0
-284 -389 0
-284 -424 0
-284 -459 0
-284 -494 0
-284 -529 0
-284 -564 0
-284 -599 0
-284 -634 0
-284 -669 0
-284 -704 0
-284 -739 0
-284 -774 0
-284 -809 0
-284 -844 0
-284 -879 0
-284 -914 0
-284 -949 0
-284 -984 0
-284 -1019 0
-284 -1054 0
-284 -1089 0
-284 -1124 0
-284 -1159 0
-284 -1194 0
-284 -1229 0
-319 -354 0
-319 -389 0
-319 -424 0
-319 -459 0
-319 -494 0
-319 -529 0
-319 -564 0
-319 -599 0
-319 -634 0
-319 -669 0
-319 -704 0
-319 -739 0
-319 -774 0
-319 -809 0
-319 -844 0
-319 -879 0
-319 -914 0
-319 -949 0
-319 -984 0
-319 -1019 0
-319 -1054 0
-319 -1089 0
-319 -1124 0
-319 -1159 0
-319 -1194 0
-319 -1229 0
-354 -389 0
-354 -424 0
-354 -459 0
-354 -494 0
-354 -529 0
-354 -564 0
-354 -599 0
-354 -634 0
-354 -669 0
-354 -704 0
-354 -739 0
-354 -774 0
-354 -809 0
-354 -844 0
-354 -879 0
-354 -914 0
-354 -949 0
-354 -984 0
-354 -1019 0
-354 -1054 0
-354 -1089 0
-354 -1124 0
-354 -1159 0
-354 -1194 0
-354 -1229 0
-389 -424 0
-389 -459 0
-389 -494 0
-389 -529 0
-389 -564 0
-389 -599 0
-389 -634 0
-389 -669 0
-389 -704 0
-389 -739 0
-389 -774 0
-389 -809 0
-389 -844 0
-389 -879 0
-389 -914 0
-389 -949 0
-389 -984 0
-389 -1019 0
-389 -1054 0
-389 -1089 0
-389 -1124 0
-389 -1159 0
-389 -1194 0
-389 -1229 0
-424 -459 0
-424 -494 0
-424 -529 0
-424 -564 0
-424 -599 0
-424 -634 0
-424 -669 0
-424 -704 0
-424 -739 0
-424 -774 0
-424 -809 0
-424 -844 0
-424 -879 0
-424 -914 0
-424 -949 0
-424 -984 0
-424 -1019 0
-424 -1054 0
-424 -1089 0
-424 -1124 0
-424 -1159 0
-424 -1194 0
-424 -1229 0
-459 -494 0
-459 -529 0
-459 -564 0
-459 -599 0
-459 -634 0
-459 -669 0
-459 -704 0
-459 -739 0
-459 -774 0
-459 -809 0
-459 -844 0
-459 -879 0
-459 -914 0
-459 -949 0
-459 -984 0
-459 -1019 0
-459 -1054 0
-459 -1089 0
-459 -1124 0
-459 -1159 0
-459 -1194 0
-459 -1229 0
-494 -529 0
-494 -564 0
-494 -599 0
-494 -634 0
-494 -669 0
-494 -704 0
-494 -739 0
-494 -774 0
-494 -809 0
-494 -844 0
-494 -879 0
-494 -914 0
-494 -949 0
-494 -984 0
-494 -1019 0
-494 -1054 0
-494 -1089 0
-494 -1124 0
-494 -1159 0
-494 -1194 0
-494 -1229 0
-529 -564 0
-529 -599 0
-529 -634 0
-529 -669 0
-529 -704 0
-529 -739 0
-529 -774 0
-529 -809 0
-529 -844 0
-529 -879 0
-529 -914 0
-529 -949 0
-529 -984 0
-529 -1019 0
-529 -1054 0
-529 -1089 0
-529 -1124 0
-529 -1159 0
-529 -1194 0
-529 -1229 0
-564 -599 0
-564 -634 0
-564 -669 0
-564 -704 0
-564 -739 0
-564 -774 0
-564 -809 0
-564 -844 0
-564 -879 0
-564 -914 0
-564 -949 0
-564 -984 0
-564 -1019 0
-564 -1054 0
-564 -1089 0
-564 -1124 0
-564 -1159 0
-564 -1194 0
-564 -1229 0
-599 -634 0
-599 -669 0
-599 -704 0
-599 -739 0
-599 -774 0
-599 -809 0
-599 -844 0
-599 -879 0
-599 -914 0
-599 -949 0
-599 -984 0
-599 -1019 0
-599 -1054 0
-599 -1089 0
-599 -1124 0
-599 -1159 0
-599 -1194 0
-599 -1229 0
-634 -669 0
-634 -704 0
-634 -739 0
-634 -774 0
-634 -809 0
-634 -844 0
-634 -879 0
-634 -914 0
-634 -949 0
-634 -984 0
-634 -1019 0
-634 -1054 0
-634 -1089 0
-634 -1124 0
-634 -1159 0
-634 -1194 0
-634 -1229 0
-669 -704 0
-669 -739 0
-669 -774 0
-669 -809 0
-669 -844 0
-669 -879 0
-669 -914 0
-669 -949 0
-669 -984 0
-669 -1019 0
-669 -1054 0
-669 -1089 0
-669 -1124 0
-669 -1159 0
-669 -1194 0
-669 -1229 0
-704 -739 0
-704 -774 0
-704 -809 0
-704 -844 0
-704 -879 0
-704 -914 0
-704 -949 0
-704 -984 0
-704 -1019 0
-704 -1054 0
-704 -1089 0
-704 -1124 0
-704 -1159 0
-704 -1194 0
-704 -1229 0
-739 -774 0
-739 -809 0
-739 -844 0
-739 -879 0
-739 -914 0
-739 -949 0
-739 -984 0
-739 -1019 0
-739 -1054 0
-739 -1089 0
-739 -1124 0
-739 -1159 0
-739 -1194 0
-739 -1229 0
-774 -809 0
-774 -844 0
-774 -879 0
-774 -914 0
-774 -949 0
-774 -984 0
-774 -1019 0
-774 -1054 0
-774 -1089 0
-774 -1124 0
-774 -1159 0
-774 -1194 0
-774 -1229 0
-809 -844 0
-809 -879 0
-809 -914 0
-809 -949 0
-809 -984 0
-809 -1019 0
-809 -1054 0
-809 -1089 0
-809 -1124 0
-809 -1159 0
-809 -1194 0
-809 -1229 0
-844 -879 0
-844 -914 0
-844 -949 0
-844 -984 0
-844 -1019 0
-844 -1054 0
-844 -1089 0
-844 -1124 0
-844 -1159 0
-844 -1194 0
-844 -1229 0
-879 -914 0
-879 -949 0
-879 -984 0
-879 -1019 0
-879 -1054 0
-879 -1089 0
-879 -1124 0
-879 -1159 0
-879 -1194 0
-879 -1229 0
-914 -949 0
-914 -984 0
-914 -1019 0
-914 -1054 0
-914 -1089 0
-914 -1124 0
-914 -1159 0
-914 -1194 0
-914 -1229 0
-949 -984 0
-949 -1019 0
-949 -1054 0
-949 -1089 0
-949 -1124 0
-949 -1159 0
-949 -1194 0
-949 -1229 0
-984 -1019 0
-984 -1054 0
-984 -1089 0
-984 -1124 0
-984 -1159 0
-984 -1194 0
-984 -1229 0
-1019 -1054 0
-1019 -1089 0
-1019 -1124 0
-1019 -1159 0
-1019 -1194 0
-1019 -1229 0
-1054 -1089 0
-1054 -1124 0
-1054 -1159 0
-1054 -1194 0
-1054 -1229 0
-1089 -1124 0
-1089 -1159 0
-1089 -1194 0
-1089 -1229 0
-1124 -1159 0
-1124 -1194 0
-1124 -1229 0
-1159 -1194 0
-1159 -1229 0
-1194 -1229 0
-5 -40 0
-5 -75 0
-5 -110 0
-5 -145 0
-5 -180 0
-5 -215 0
-5 -250 0
-5 -285 0
-5 -320 0
-5 -355 0
-5 -390 0
-5 -425 0
-5 -460 0
-5 -495 0
-5 -530 0
-5 -565 0
-5 -600 0
-5 -635 0
-5 -670 0
-5 -705 0
-5 -740 0
-5 -775 0
-5 -810 0
-5 -845 0
-5 -880 0
-5 -915 0
-5 -950 0
-5 -985 0
-5 -1020 0
-5 -1055 0
-5 -1090 0
-5 -1125 0
-5 -1160 0
-5 -1195 0
-5 -1230 0
-40 -75 0
-40 -110 0
-40 -145 0
-40 -180 0
-40 -215 0
-40 -250 0
-40 -285 0
-40 -320 0
-40 -355 0
-40 -390 0
-40 -425 0
-40 -460 0
-40 -495 0
-40 -530 0
-40 -565 0
-40 -600 0
-40 -635 0
-40 -670 0
-40 -705 0
-40 -740 0
-40 -775 0
-40 -810 0
-40 -845 0
-40 -880 0
-40 -915 0
-40 -950 0
-40 -985 0
-40 -1020 0
-40 -1055 0
-40 -1090 0
-40 -1125 0
-40 -1160 0
-40 -1195 0
-40 -1230 0
-75 -110 0
-75 -145 0
-75 -180 0
-75 -215 0
-75 -250 0
-75 -285 0
-75 -320 0
-75 -355 0
-75 -390 0
-75 -425 0
-75 -460 0
-75 -495 0
-75 -530 0
-75 -565 0
-75 -600 0
-75 -635 0
-75 -670 0
-75 -705 0
-75 -740 0
-75 -775 0
-75 -810 0
-75 -845 0
-75 -880 0
-75 -915 0
-75 -950 0
-75 -985 0
-75 -1020 0
-75 -1055 0
-75 -1090 0
-75 -1125 0
-75 -1160 0
-75 -1195 0
-75 -1230 0
-110 -145 0
-110 -180 0
-110 -215 0
-110 -250 0
-110 -285 0
-110 -320 0
-110 -355 0
-110 -390 0
-110 -425 0
-110 -460 0
-110 -495 0
-110 -530 0
-110 -565 0
-110 -600 0
-110 -635 0
-110 -670 0
-110 -705 0
-110 -740 0
-110 -775 0
-110 -810 0
-110 -845 0
-110 -880 0
-110 -915 0
-110 -950 0
-110 -985 0
-110 -1020 0
-110 -1055 0
-110 -1090 0
-110 -1125 0
-110 -1160 0
-110 -1195 0
-110 -1230 0
-145 -180 0
-145 -215 0
-145 -250 0
-145 -285 0
-145 -320 0
-145 -355 0
-145 -390 0
-145 -425 0
-145 -460 0
-145 -495 0
-145 -530 0
-145 -565 0
-145 -600 0
-145 -635 0
-145 -670 0
-145 -705 0
-145 -740 0
-145 -775 0
-145 -810 0
-145 -845 0
-145 -880 0
-145 -915 0
-145 -950 0
-145 -985 0
-145 -1020 0
-145 -1055 0
-145 -1090 0
-145 -1125 0
-145 -1160 0
-145 -1195 0
-145 -1230 0
-180 -215 0
-180 -250 0
-180 -285 0
-180 -320 0
-180 -355 0
-180 -390 0
-180 -425 0
-180 -460 0
-180 -495 0
-180 -530 0
-180 -565 0
-180 -600 0
-180 -635 0
-180 -670 0
-180 -705 0
-180 -740 0
-180 -775 0
-180 -810 0
-180 -845 0
-180 -880 0
-180 -915 0
-180 -950 0
-180 -985 0
-180 -1020 0
-180 -1055 0
-180 -1090 0
-180 -1125 0
-180 -1160 0
-180 -1195 0
-180 -1230 0
-215 -250 0
-215 -285 0
-215 -320 0
-215 -355 0
-215 -390 0
-215 -425 0
-215 -460 0
-215 -495 0
-215 -530 0
-215 -565 0
-215 -600 0
-215 -635 0
-215 -670 0
-215 -705 0
-215 -740 0
-215 -775 0
-215 -810 0
-215 -845 0
-215 -880 0
-215 -915 0
-215 -950 0
-215 -985 0
-215 -1020 0
-215 -1055 0
-215 -1090 0
-215 -1125 0
-215 -1160 0
-215 -1195 0
-215 -1230 0
-250 -285 0
-250 -320 0
-250 -355 0
-250 -390 0
-250 -425 0
-250 -460 0
-250 -495 0
-250 -530 0
-250 -565 0
-250 -600 0
-250 -635 0
-250 -670 0
-250 -705 0
-250 -740 0
-250 -775 0
-250 -810 0
-250 -845 0
-250 -880 0
-250 -915 0
-250 -950 0
-250 -985 0
-250 -1020 0
-250 -1055 0
-250 -1090 0
-250 -1125 0
-250 -1160 0
-250 -1195 0
-250 -1230 0
-285 -320 0
-285 -355 0
-285 -390 0
-285 -425 0
-285 -460 0
-285 -495 0
-285 -530 0
-285 -565 0
-285 -600 0
-285 -635 0
-285 -670 0
-285 -705 0
-285 -740 0
-285 -775 0
-285 -810 0
-285 -845 0
-285 -880 0
-285 -915 0
-285 -950 0
-285 -985 0
-285 -1020 0
-285 -1055 0
-285 -1090 0
-285 -1125 0
-285 -1160 0
-285 -1195 0
-285 -1230 0
-320 -355 0
-320 -390 0
-320 -425 0
-320 -460 0
-320 -495 0
-320 -530 0
-320 -565 0
-320 -600 0
-320 -635 0
-320 -670 0
-320 -705 0
-320 -740 0
-320 -775 0
-320 -810 0
-320 -845 0
-320 -880 0
-320 -915 0
-320 -950 0
-320 -985 0
-320 -1020 0
-320 -1055 0
-320 -1090 0
-320 -1125 0
-320 -1160 0
-320 -1195 0
-320 -1230 0
-355 -390 0
-355 -425 0
-355 -460 0
-355 -495 0
-355 -530 0
-355 -565 0
-355 -600 0
-355 -635 0
-355 -670 0
-355 -705 0
-355 -740 0
-355 -775 0
-355 -810 0
-355 -845 0
-355 -880 0
-355 -915 0
-355 -950 0
-355 -985 0
-355 -1020 0
-355 -1055 0
-355 -1090 0
-355 -1125 0
-355 -1160 0
-355 -1195 0
-355 -1230 0
-390 -425 0
-390 -460 0
-390 -495 0
-390 -530 0
-390 -565 0
-390 -600 0
-390 -635 0
-390 -670 0
-390 -705 0
-390 -740 0
-390 -775 0
-390 -810 0
-390 -845 0
-390 -880 0
-390 -915 0
-390 -950 0
-390 -985 0
-390 -1020 0
-390 -1055 0
-390 -1090 0
-390 -1125 0
-390 -1160 0
-390 -1195 0
-390 -1230 0
-425 -460 0
-425 -495 0
-425 -530 0
-425 -565 0
-425 -600 0
-425 -635 0
-425 -670 0
-425 -705 0
-425 -740 0
-425 -775 0
-425 -810 0
-425 -845 0
-425 -880 0
-425 -915 0
-425 -950 0
-425 -985 0
-425 -1020 0
-425 -1055 0
-425 -1090 0
-425 -1125 0
-425 -1160 0
-425 -1195 0
-425 -1230 0
-460 -495 0
-460 -530 0
-460 -565 0
-460 -600 0
-460 -635 0
-460 -670 0
-460 -705 0
-460 -740 0
-460 -775 0
-460 -810 0
-460 -845 0
-460 -880 0
-460 -915 0
-460 -950 0
-460 -985 0
-460 -1020 0
-460 -1055 0
-460 -1090 0
-460 -1125 0
-460 -1160 0
-460 -1195 0
-460 -1230 0
-495 -530 0
-495 -565 0
-495 -600 0
-495 -635 0
-495 -670 0
-495 -705 0
-495 -740 0
-495 -775 0
-495 -810 0
-495 -845 0
-495 -880 0
-495 -915 0
-495 -950 0
-495 -985 0
-495 -1020 0
-495 -1055 0
-495 -1090 0
-495 -1125 0
-495 -1160 0
-495 -1195 0
-495 -1230 0
-530 -565 0
-530 -600 0
-530 -635 0
-530 -670 0
-530 -705 0
-530 -740 0
-530 -775 0
-530 -810 0
-530 -845 0
-530 -880 0
-530 -915 0
-530 -950 0
-530 -985 0
-530 -1020 0
-530 -1055 0
-530 -1090 0
-530 -1125 0
-530 -1160 0
-530 -1195 0
-530 -1230 0
-565 -600 0
-565 -635 0
-565 -670 0
-565 -705 0
-565 -740 0
-565 -775 0
-565 -810 0
-565 -845 0
-565 -880 0
-565 -915 0
-565 -950 0
-565 -985 0
-565 -1020 0
-565 -1055 0
-565 -1090 0
-565 -1125 0
-565 -1160 0
-565 -1195 0
-565 -1230 0
-600 -635 0
-600 -670 0
-600 -705 0
-600 -740 0
-600 -775 0
-600 -810 0
-600 -845 0
-600 -880 0
-600 -915 0
-600 -950 0
-600 -985 0
-600 -1020 0
-600 -1055 0
-600 -1090 0
-600 -1125 0
-600 -1160 0
-600 -1195 0
-600 -1230 0
-635 -670 0
-635 -705 0
-635 -740 0
-635 -775 0
-635 -810 0
-635 -845 0
-635 -880 0
-635 -915 0
-635 -950 0
-635 -985 0
-635 -1020 0
-635 -1055 0
-635 -1090 0
-635 -1125 0
-635 -1160 0
-635 -1195 0
-635 -1230 0
-670 -705 0
-670 -740 0
-670 -775 0
-670 -810 0
-670 -845 0
-670 -880 0
-670 -915 0
-670 -950 0
-670 -985 0
-670 -1020 0
-670 -1055 0
-670 -1090 0
-670 -1125 0
-670 -1160 0
-670 -1195 0
-670 -1230 0
-705 -740 0
-705 -775 0
-705 -810 0
-705 -845 0
-705 -880 0
-705 -915 0
-705 -950 0
-705 -985 0
-705 -1020 0
-705 -1055 0
-705 -1090 0
-705 -1125 0
-705 -1160 0
-705 -1195 0
-705 -1230 0
-740 -775 0
-740 -810 0
-740 -845 0
-740 -880 0
-740 -915 0
-740 -950 0
-740 -985 0
-740 -1020 0
-740 -1055 0
-740 -1090 0
-740 -1125 0
-740 -1160 0
-740 -1195 0
-740 -1230 0
-775 -810 0
-775 -845 0
-775 -880 0
-775 -915 0
-775 -950 0
-775 -985 0
-775 -1020 0
-775 -1055 0
-775 -1090 0
-775 -1125 0
-775 -1160 0
-775 -1195 0
-775 -1230 0
-810 -845 0
-810 -880 0
-810 -915 0
-810 -950 0
-810 -985 0
-810 -1020 0
-810 -1055 0
-810 -1090 0
-810 -1125 0
-810 -1160 0
-810 -1195 0
-810 -1230 0
-845 -880 0
-845 -915 0
-845 -950 0
-845 -985 0
-845 -1020 0
-845 -1055 0
-845 -1090 0
-845 -1125 0
-845 -1160 0
-845 -1195 0
-845 -1230 0
-880 -915 0
-880 -950 0
-880 -985 0
-880 -1020 0
-880 -1055 0
-880 -1090 0
-880 -1125 0
-880 -1160 0
-880 -1195 0
-880 -1230 0
-915 -950 0
-915 -985 0
-915 -1020 0
-915 -1055 0
-915 -1090 0
-915 -1125 0
-915 -1160 0
-915 -1195 0
-915 -1230 0
-950 -985 0
-950 -1020 0
-950 -1055 0
-950 -1090 0
-950 -1125 0
-950 -1160 0
-950 -1195 0
-950 -1230 0
-985 -1020 0
-985 -1055 0
-985 -1090 0
-985 -1125 0
-985 -1160 0
-985 -1195 0
-985 -1230 0
-1020 -1055 0
-1020 -1090 0
-1020 -1125 0
-1020 -1160 0
-1020 -1195 0
-1020 -1230 0
-1055 -1090 0
-1055 -1125 0
-1055 -1160 0
-1055 -1195 0
-1055 -1230 0
-1090 -1125 0
-1090 -1160 0
-1090 -1195 0
-1090 -1230 0
-1125 -1160 0
-1125 -1195 0
-1125 -1230 0
-1160 -1195 0
-1160 -1230 0
-1195 -1230 0
-6 -41 0
-6 -76 0
-6 -111 0
-6 -146 0
-6 -181 0
-6 -216 0
-6 -251 0
-6 -286 0
-6 -321 0
-6 -356 0
-6 -391 0
-6 -426 0
-6 -461 0
-6 -496 0
-6 -531 0
-6 -566 0
-6 -601 0
-6 -636 0
-6 -671 0
-6 -706 0
-6 -741 0
-6 -776 0
-6 -811 0
-6 -846 0
-6 -881 0
-6 -916 0
-6 -951 0
-6 -986 0
-6 -1021 0
-6 -1056 0
-6 -1091 0
-6 -1126 0
-6 -1161 0
-6 -1196 0
-6 -1231 0
-41 -76 0
-41 -111 0
-41 -146 0
-41 -181 0
-41 -216 0
-41 -251 0
-41 -286 0
-41 -321 0
-41 -356 0
-41 -391 0
-41 -426 0
-41 -461 0
-41 -496 0
-41 -531 0
-41 -566 0
-41 -601 0
-41 -636 0
-41 -671 0
-41 -706 0
-41 -741 0
-41 -776 0
-41 -811 0
-41 -846 0
-41 -881 0
-41 -916 0
-41 -951 0
-41 -986 0
-41 -1021 0
-41 -1056 0
-41 -1091 0
-41 -1126 0
-41 -1161 0
-41 -1196 0
-41 -1231 0
-76 -111 0
-76 -146 0
-76 -181 0
-76 -216 0
-76 -251 0
-76 -286 0
-76 -321 0
-76 -356 0
-76 -391 0
-76 -426 0
-76 -461 0
-76 -496 0
-76 -531 0
-76 -566 0
-76 -601 0
-76 -636 0
-76 -671 0
-76 -706 0
-76 -741 0
-76 -776 0
-76 -811 0
-76 -846 0
-76 -881 0
-76 -916 0
-76 -951 0
-76 -986 0
-76 -1021 0
-76 -1056 0
-76 -1091 0
-76 -1126 0
-76 -1161 0
-76 -1196 0
-76 -1231 0
-111 -146 0
-111 -181 0
-111 -216 0
-111 -251 0
-111 -286 0
-111 -321 0
-111 -356 0
-111 -391 0
-111 -426 0
-111 -461 0
-111 -496 0
-111 -531 0
-111 -566 0
-111 -601 0
-111 -636 0
-111 -671 0
-111 -706 0
-111 -741 0
-111 -776 0
-111 -811 0
-111 -846 0
-111 -881 0
-111 -916 0
-111 -951 0
-111 -986 0
-111 -1021 0
-111 -1056 0
-111 -1091 0
-111 -1126 0
-111 -1161 0
-111 -1196 0
-111 -1231 0
-146 -181 0
-146 -216 0
-146 -251 0
-146 -286 0
-146 -321 0
-146 -356 0
-146 -391 0
-146 -426 0
-146 -461 0
-146 -496 0
-146 -531 0
-146 -566 0
-146 -601 0
-146 -636 0
-146 -671 0
-146 -706 0
-146 -741 0
-146 -776 0
-146 -811 0
-146 -846 0
-146 -881 0
-146 -916 0
-146 -951 0
-146 -986 0
-146 -1021 0
-146 -1056 0
-146 -1091 0
-146 -1126 0
-146 -1161 0
-146 -1196 0
-146 -1231 0
-181 -216 0
-181 -251 0
-181 -286 0
-181 -321 0
-181 -356 0
-181 -391 0
-181 -426 0
-181 -461 0
-181 -496 0
-181 -531 0
-181 -566 0
-181 -601 0
-181 -636 0
-181 -671 0
-181 -706 0
-181 -741 0
-181 -776 0
-181 -811 0
-181 -846 0
-181 -881 0
-181 -916 0
-181 -951 0
-181 -986 0
-181 -1021 0
-181 -1056 0
-181 -1091 0
-181 -1126 0
-181 -1161 0
-181 -1196 0
-181 -1231 0
-216 -251 0
-216 -286 0
-216 -321 0
-216 -356 0
-216 -391 0
-216 -426 0
-216 -461 0
-216 -496 0
-216 -531 0
-216 -566 0
-216 -601 0
-216 -636 0
-216 -671 0
-216 -706 0
-216 -741 0
-216 -776 0
-216 -811 0
-216 -846 0
-216 -881 0
-216 -916 0
-216 -951 0
-216 -986 0
-216 -1021 0
-216 -1056 0
-216 -1091 0
-216 -1126 0
-216 -1161 0
-216 -1196 0
-216 -1231 0
-251 -286 0
-251 -321 0
-251 -356 0
-251 -391 0
-251 -426 0
-251 -461 0
-251 -496 0
-251 -531 0
-251 -566 0
-251 -601 0
-251 -636 0
-251 -671 0
-251 -706 0
-251 -741 0
-251 -776 0
-251 -811 0
-251 -846 0
-251 -881 0
-251 -916 0
-251 -951 0
-251 -986 0
-251 -1021 0
-251 -1056 0
-251 -1091 0
-251 -1126 0
-251 -1161 0
-251 -1196 0
-251 -1231 0
-286 -321 0
-286 -356 0
-286 -391 0
-286 -426 0
-286 -461 0
-286 -496 0
-286 -531 0
-286 -566 0
-286 -601 0
-286 -636 0
-286 -671 0
-286 -706 0
-286 -741 0
-286 -776 0
-286 -811 0
-286 -846 0
-286 -881 0
-286 -916 0
-286 -951 0
-286 -986 0
-286 -1021 0
-286 -1056 0
-286 -1091 0
-286 -1126 0
-286 -1161 0
-286 -1196 0
-286 -1231 0
-321 -356 0
-321 -391 0
-321 -426 0
-321 -461 0
-321 -496 0
-321 -531 0
-321 -566 0
-321 -601 0
-321 -636 0
-321 -671 0
-321 -706 0
-321 -741 0
-321 -776 0
-321 -811 0
-321 -846 0
-321 -881 0
-321 -916 0
-321 -951 0
-321 -986 0
-321 -1021 0
-321 -1056 0
-321 -1091 0
-321 -1126 0
-321 -1161 0
-321 -1196 0
-321 -1231 0
-356 -391 0
-356 -426 0
-356 -461 0
-356 -496 0
-356 -531 0
-356 -566 0
-356 -601 0
-356 -636 0
-356 -671 0
-356 -706 0
-356 -741 0
-356 -776 0
-356 -811 0
-356 -846 0
-356 -881 0
-356 -916 0
-356 -951 0
-356 -986 0
-356 -1021 0
-356 -1056 0
-356 -1091 0
-356 -1126 0
-356 -1161 0
-356 -1196 0
-356 -1231 0
-391 -426 0
-391 -461 0
-391 -496 0
-391 -531 0
-391 -566 0
-391 -601 0
-391 -636 0
-391 -671 0
-391 -706 0
-391 -741 0
-391 -776 0
-391 -811 0
-391 -846 0
-391 -881 0
-391 -916 0
-391 -951 0
-391 -986 0
-391 -1021 0
-391 -1056 0
-391 -1091 0
-391 -1126 0
-391 -1161 0
-391 -1196 0
-391 -1231 0
-426 -461 0
-426 -496 0
-426 -531 0
-426 -566 0
-426 -601 0
-426 -636 0
-426 -671 0
-426 -706 0
-426 -741 0
-426 -776 0
-426 -811 0
-426 -846 0
-426 -881 0
-426 -916 0
-426 -951 0
-426 -986 0
-426 -1021 0
-426 -1056 0
-426 -1091 0
-426 -1126 0
-426 -1161 0
-426 -1196 0
-426 -1231 0
-461 -496 0
-461 -531 0
-461 -566 0
-461 -601 0
-461 -636 0
-461 -671 0
-461 -706 0
-461 -741 0
-461 -776 0
-461 -811 0
-461 -846 0
-461 -881 0
-461 -916 0
-461 -951 0
-461 -986 0
-461 -1021 0
-461 -1056 0
-461 -1091 0
-461 -1126 0
-461 -1161 0
-461 -1196 0
-461 -1231 0
-496 -531 0
-496 -566 0
-496 -601 0
-496 -636 0
-496 -671 0
-496 -706 0
-496 -741 0
-496 -776 0
-496 -811 0
-496 -846 0
-496 -881 0
-496 -916 0
-496 -951 0
-496 -986 0
-496 -1021 0
-496 -1056 0
-496 -1091 0
-496 -1126 0
-496 -1161 0
-496 -1196 0
-496 -1231 0
-531 -566 0
-531 -601 0
-531 -636 0
-531 -671 0
-531 -706 0
-531 -741 0
-531 -776 0
-531 -811 0
-531 -846 0
-531 -881 0
-531 -916 0
-531 -951 0
-531 -986 0
-531 -1021 0
-531 -1056 0
-531 -1091 0
-531 -1126 0
-531 -1161 0
-531 -1196 0
-531 -1231 0
-566 -601 0
-566 -636 0
-566 -671 0
-566 -706 0
-566 -741 0
-566 -776 0
-566 -811 0
-566 -846 0
-566 -881 0
-566 -916 0
-566 -951 0
-566 -986 0
-566 -1021 0
-566 -1056 0
-566 -1091 0
-566 -1126 0
-566 -1161 0
-566 -1196 0
-566 -1231 0
-601 -636 0
-601 -671 0
-601 -706 0
-601 -741 0
-601 -776 0
-601 -811 0
-601 -846 0
-601 -881 0
-601 -916 0
-601 -951 0
-601 -986 0
-601 -1021 0
-601 -1056 0
-601 -1091 0
-601 -1126 0
-601 -1161 0
-601 -1196 0
-601 -1231 0
-636 -671 0
-636 -706 0
-636 -741 0
-636 -776 0
-636 -811 0
-636 -846 0
-636 -881 0
-636 -916 0
-636 -951 0
-636 -986 0
-636 -1021 0
-636 -1056 0
-636 -1091 0
-636 -1126 0
-636 -1161 0
-636 -1196 0
-636 -1231 0
-671 -706 0
-671 -741 0
-671 -776 0
-671 -811 0
-671 -846 0
-671 -881 0
-671 -916 0
-671 -951 0
-671 -986 0
-671 -1021 0
-671 -1056 0
-671 -1091 0
-671 -1126 0
-671 -1161 0
-671 -1196 0
-671 -1231 0
-706 -741 0
-706 -776 0
-706 -811 0
-706 -846 0
-706 -881 0
-706 -916 0
-706 -951 0
-706 -986 0
-706 -1021 0
-706 -1056 0
-706 -1091 0
-706 -1126 0
-706 -1161 0
-706 -1196 0
-706 -1231 0
-741 -776 0
-741 -811 0
-741 -846 0
-741 -881 0
-741 -916 0
-741 -951 0
-741 -986 0
-741 -1021 0
-741 -1056 0
-741 -1091 0
-741 -1126 0
-741 -1161 0
-741 -1196 0
-741 -1231 0
-776 -811 0
-776 -846 0
-776 -881 0
-776 -916 0
-776 -951 0
-776 -986 0
-776 -1021 0
-776 -1056 0
-776 -1091 0
-776 -1126 0
-776 -1161 0
-776 -1196 0
-776 -1231 0
-811 -846 0
-811 -881 0
-811 -916 0
-811 -951 0
-811 -986 0
-811 -1021 0
-811 -1056 0
-811 -1091 0
-811 -1126 0
-811 -1161 0
-811 -1196 0
-811 -1231 0
-846 -881 0
-846 -916 0
-846 -951 0
-846 -986 0
-846 -1021 0
-846 -1056 0
-846 -1091 0
-846 -1126 0
-846 -1161 0
-846 -1196 0
-846 -1231 0
-881 -916 0
-881 -951 0
-881 -986 0
-881 -1021 0
-881 -1056 0
-881 -1091 0
-881 -1126 0
-881 -1161 0
-881 -1196 0
-881 -1231 0
-916 -951 0
-916 -986 0
-916 -1021 0
-916 -1056 0
-916 -1091 0
-916 -1126 0
-916 -1161 0
-916 -1196 0
-916 -1231 0
-951 -986 0
-951 -1021 0
-951 -1056 0
-951 -1091 0
-951 -1126 0
-951 -1161 0
-951 -1196 0
-951 -1231 0
-986 -1021 0
-986 -1056 0
-986 -1091 0
-986 -1126 0
-986 -1161 0
-986 -1196 0
-986 -1231 0
-1021 -1056 0
-1021 -1091 0
-1021 -1126 0
-1021 -1161 0
-1021 -1196 0
-1021 -1231 0
-1056 -1091 0
-1056 -1126 0
-1056 -1161 0
-1056 -1196 0
-1056 -1231 0
-1091 -1126 0
-1091 -1161 0
-1091 -1196 0
-1091 -1231 0
-1126 -1161 0
-1126 -1196 0
-1126 -1231 0
-1161 -1196 0
-1161 -1231 0
-1196 -1231 0
-7 -42 0
-7 -77 0
-7 -112 0
-7 -147 0
-7 -182 0
-7 -217 0
-7 -252 0
-7 -287 0
-7 -322 0
-7 -357 0
-7 -392 0
-7 -427 0
-7 -462 0
-7 -497 0
-7 -532 0
-7 -567 0
-7 -602 0
-7 -637 0
-7 -672 0
-7 -707 0
-7 -742 0
-7 -777 0
-7 -812 0
-7 -847 0
-7 -882 0
-7 -917 0
-7 -952 0
-7 -987 0
-7 -1022 0
-7 -1057 0
-7 -1092 0
-7 -1127 0
-7 -1162 0
-7 -1197 0
-7 -1232 0
-42 -77 0
-42 -112 0
-42 -147 0
-42 -182 0
-42 -217 0
-42 -252 0
-42 -287 0
-42 -322 0
-42 -357 0
-42 -392 0
-42 -427 0
-42 -462 0
-42 -497 0
-42 -532 0
-42 -567 0
-42 -602 0
-42 -637 0
-42 -672 0
-42 -707 0
-42 -742 0
-42 -777 0
-42 -812 0
-42 -847 0
-42 -882 0
-42 -917 0
-42 -952 0
-42 -987 0
-42 -1022 0
-42 -1057 0
-42 -1092 0
-42 -1127 0
-42 -1162 0
-42 -1197 0
-42 -1232 0
-77 -112 0
-77 -147 0
-77 -182 0
-77 -217 0
-77 -252 0
-77 -287 0
-77 -322 0
-77 -357 0
-77 -392 0
-77 -427 0
-77 -462 0
-77 -497 0
-77 -532 0
-77 -567 0
-77 -602 0
-77 -637 0
-77 -672 0
-77 -707 0
-77 -742 0
-77 -777 0
-77 -812 0
-77 -847 0
-77 -882 0
-77 -917 0
-77 -952 0
-77 -987 0
-77 -1022 0
-77 -1057 0
-77 -1092 0
-77 -1127 0
-77 -1162 0
-77 -1197 0
-77 -1232 0
-112 -147 0
-112 -182 0
-112 -217 0
-112 -252 0
-112 -287 0
-112 -322 0
-112 -357 0
-112 -392 0
-112 -427 0
-112 -462 0
-112 -497 0
-112 -532 0
-112 -567 0
-112 -602 0
-112 -637 0
-112 -672 0
-112 -707 0
-112 -742 0
-112 -777 0
-112 -812 0
-112 -847 0
-112 -882 0
-112 -917 0
-112 -952 0
-112 -987 0
-112 -1022 0
-112 -1057 0
-112 -1092 0
-112 -1127 0
-112 -1162 0
-112 -1197 0
-112 -1232 0
-147 -182 0
-147 -217 0
-147 -252 0
-147 -287 0
-147 -322 0
-147 -357 0
-147 -392 0
-147 -427 0
-147 -462 0
-147 -497 0
-147 -532 0
-147 -567 0
-147 -602 0
-147 -637 0
-147 -672 0
-147 -707 0
-147 -742 0
-147 -777 0
-147 -812 0
-147 -847 0
-147 -882 0
-147 -917 0
-147 -952 0
-147 -987 0
-147 -1022 0
-147 -1057 0
-147 -1092 0
-147 -1127 0
-147 -1162 0
-147 -1197 0
-147 -1232 0
-182 -217 0
-182 -252 0
-182 -287 0
-182 -322 0
-182 -357 0
-182 -392 0
-182 -427 0
-182 -462 0
-182 -497 0
-182 -532 0
-182 -567 0
-182 -602 0
-182 -637 0
-182 -672 0
-182 -707 0
-182 -742 0
-182 -777 0
-182 -812 0
-182 -847 0
-182 -882 0
-182 -917 0
-182 -952 0
-182 -987 0
-182 -1022 0
-182 -1057 0
-182 -1092 0
-182 -1127 0
-182 -1162 0
-182 -1197 0
-182 -1232 0
-217 -252 0
-217 -287 0
-217 -322 0
-217 -357 0
-217 -392 0
-217 -427 0
-217 -462 0
-217 -497 0
-217 -532 0
-217 -567 0
-217 -602 0
-217 -637 0
-217 -672 0
-217 -707 0
-217 -742 0
-217 -777 0
-217 -812 0
-217 -847 0
-217 -882 0
-217 -917 0
-217 -952 0
-217 -987 0
-217 -1022 0
-217 -1057 0
-217 -1092 0
-217 -1127 0
-217 -1162 0
-217 -1197 0
-217 -1232 0
-252 -287 0
-252 -322 0
-252 -357 0
-252 -392 0
-252 -427 0
-252 -462 0
-252 -497 0
-252 -532 0
-252 -567 0
-252 -602 0
-252 -637 0
-252 -672 0
-252 -707 0
-252 -742 0
-252 -777 0
-252 -812 0
-252 -847 0
-252 -882 0
-252 -917 0
-252 -952 0
-252 -987 0
-252 -1022 0
-252 -1057 0
-252 -1092 0
-252 -1127 0
-252 -1162 0
-252 -1197 0
-252 -1232 0
-287 -322 0
-287 -357 0
-287 -392 0
-287 -427 0
-287 -462 0
-287 -497 0
-287 -532 0
-287 -567 0
-287 -602 0
-287 -637 0
-287 -672 0
-287 -707 0
-287 -742 0
-287 -777 0
-287 -812 0
-287 -847 0
-287 -882 0
-287 -917 0
-287 -952 0
-287 -987 0
-287 -1022 0
-287 -1057 0
-287 -1092 0
-287 -1127 0
-287 -1162 0
-287 -1197 0
-287 -1232 0
-322 -357 0
-322 -392 0
-322 -427 0
-322 -462 0
-322 -497 0
-322 -532 0
-322 -567 0
-322 -602 0
-322 -637 0
-322 -672 0
-322 -707 0
-322 -742 0
-322 -777 0
-322 -812 0
-322 -847 0
-322 -882 0
-322 -917 0
-322 -952 0
-322 -987 0
-322 -1022 0
-322 -1057 0
-322 -1092 0
-322 -1127 0
-322 -1162 0
-322 -1197 0
-322 -1232 0
-357 -392 0
-357 -427 0
-357 -462 0
-357 -497 0
-357 -532 0
-357 -567 0
-357 -602 0
-357 -637 0
-357 -672 0
-357 -707 0
-357 -742 0
-357 -777 0
-357 -812 0
-357 -847 0
-357 -882 0
-357 -917 0
-357 -952 0
-357 -987 0
-357 -1022 0
-357 -1057 0
-357 -1092 0
-357 -1127 0
-357 -1162 0
-357 -1197 0
-357 -1232 0
-392 -427 0
-392 -462 0
-392 -497 0
-392 -532 0
-392 -567 0
-392 -602 0
-392 -637 0
-392 -672 0
-392 -707 0
-392 -742 0
-392 -777 0
-392 -812 0
-392 -847 0
-392 -882 0
-392 -917 0
-392 -952 0
-392 -987 0
-392 -1022 0
-392 -1057 0
-392 -1092 0
-392 -1127 0
-392 -1162 0
-392 -1197 0
-392 -1232 0
-427 -462 0
-427 -497 0
-427 -532 0
-427 -567 0
-427 -602 0
-427 -637 0
-427 -672 0
-427 -707 0
-427 -742 0
-427 -777 0
-427 -812 0
-427 -847 0
-427 -882 0
-427 -917 0
-427 -952 0
-427 -987 0
-427 -1022 0
-427 -1057 0
-427 -1092 0
-427 -1127 0
-427 -1162 0
-427 -1197 0
-427 -1232 0
-462 -497 0
-462 -532 0
-462 -567 0
-462 -602 0
-462 -637 0
-462 -672 0
-462 -707 0
-462 -742 0
-462 -777 0
-462 -812 0
-462 -847 0
-462 -882 0
-462 -917 0
-462 -952 0
-462 -987 0
-462 -1022 0
-462 -1057 0
-462 -1092 0
-462 -1127 0
-462 -1162 0
-462 -1197 0
-462 -1232 0
-497 -532 0
-497 -567 0
-497 -602 0
-497 -637 0
-497 -672 0
-497 -707 0
-497 -742 0
-497 -777 0
-497 -812 0
-497 -847 0
-497 -882 0
-497 -917 0
-497 -952 0
-497 -987 0
-497 -1022 0
-497 -1057 0
-497 -1092 0
-497 -1127 0
-497 -1162 0
-497 -1197 0
-497 -1232 0
-532 -567 0
-532 -602 0
-532 -637 0
-532 -672 0
-532 -707 0
-532 -742 0
-532 -777 0
-532 -812 0
-532 -847 0
-532 -882 0
-532 -917 0
-532 -952 0
-532 -987 0
-532 -1022 0
-532 -1057 0
-532 -1092 0
-532 -1127 0
-532 -1162 0
-532 -1197 0
-532 -1232 0
-567 -602 0
-567 -637 0
-567 -672 0
-567 -707 0
-567 -742 0
-567 -777 0
-567 -812 0
-567 -847 0
-567 -882 0
-567 -917 0
-567 -952 0
-567 -987 0
-567 -1022 0
-567 -1057 0
-567 -1092 0
-567 -1127 0
-567 -1162 0
-567 -1197 0
-567 -1232 0
-602 -637 0
-602 -672 0
-602 -707 0
-602 -742 0
-602 -777 0
-602 -812 0
-602 -847 0
-602 -882 0
-602 -917 0
-602 -952 0
-602 -987 0
-602 -1022 0
-602 -1057 0
-602 -1092 0
-602 -1127 0
-602 -1162 0
-602 -1197 0
-602 -1232 0
-637 -672 0
-637 -707 0
-637 -742 0
-637 -777 0
-637 -812 0
-637 -847 0
-637 -882 0
-637 -917 0
-637 -952 0
-637 -987 0
-637 -1022 0
-637 -1057 0
-637 -1092 0
-637 -1127 0
-637 -1162 0
-637 -1197 0
-637 -1232 0
-672 -707 0
-672 -742 0
-672 -777 0
-672 -812 0
-672 -847 0
-672 -882 0
-672 -917 0
-672 -952 0
-672 -987 0
-672 -1022 0
-672 -1057 0
-672 -1092 0
-672 -1127 0
-672 -1162 0
-672 -1197 0
-672 -1232 0
-707 -742 0
-707 -777 0
-707 -812 0
-707 -847 0
-707 -882 0
-707 -917 0
-707 -952 0
-707 -987 0
-707 -1022 0
-707 -1057 0
-707 -1092 0
-707 -1127 0
-707 -1162 0
-707 -1197 0
-707 -1232 0
-742 -777 0
-742 -812 0
-742 -847 0
-742 -882 0
-742 -917 0
-742 -952 0
-742 -987 0
-742 -1022 0
-742 -1057 0
-742 -1092 0
-742 -1127 0
-742 -1162 0
-742 -1197 0
-742 -1232 0
-777 -812 0
-777 -847 0
-777 -882 0
-777 -917 0
-777 -952 0
-777 -987 0
-777 -1022 0
-777 -1057 0
-777 -1092 0
-777 -1127 0
-777 -1162 0
-777 -1197 0
-777 -1232 0
-812 -847 0
-812 -882 0
-812 -917 0
-812 -952 0
-812 -987 0
-812 -1022 0
-812 -1057 0
-812 -1092 0
-812 -1127 0
-812 -1162 0
-812 -1197 0
-812 -1232 0
-847 -882 0
-847 -917 0
-847 -952 0
-847 -987 0
-847 -1022 0
-847 -1057 0
-847 -1092 0
-847 -1127 0
-847 -1162 0
-847 -1197 0
-847 -1232 0
-882 -917 0
-882 -952 0
-882 -987 0
-882 -1022 0
-882 -1057 0
-882 -1092 0
-882 -1127 0
-882 -1162 0
-882 -1197 0
-882 -1232 0
-917 -952 0
-917 -987 0
-917 -1022 0
-917 -1057 0
-917 -1092 0
-917 -1127 0
-917 -1162 0
-917 -1197 0
-917 -1232 0
-952 -987 0
-952 -1022 0
-952 -1057 0
-952 -1092 0
-952 -1127 0
-952 -1162 0
-952 -1197 0
-952 -1232 0
-987 -1022 0
-987 -1057 0
-987 -1092 0
-987 -1127 0
-987 -1162 0
-987 -1197 0
-987 -1232 0
-1022 -1057 0
-1022 -1092 0
-1022 -1127 0
-1022 -1162 0
-1022 -1197 0
-1022 -1232 0
-1057 -1092 0
-1057 -1127 0
-1057 -1162 0
-1057 -1197 0
-1057 -1232 0
-1092 -1127 0
-1092 -1162 0
-1092 -1197 0
-1092 -1232 0
-1127 -1162 0
-1127 -1197 0
-1127 -1232 0
-1162 -1197 0
-1162 -1232 0
-1197 -1232 0
-8 -43 0
-8 -78 0
-8 -113 0
-8 -148 0
-8 -183 0
-8 -218 0
-8 -253 0
-8 -288 0
-8 -323 0
-8 -358 0
-8 -393 0
-8 -428 0
-8 -463 0
-8 -498 0
-8 -533 0
-8 -568 0
-8 -603 0
-8 -638 0
-8 -673 0
-8 -708 0
-8 -743 0
-8 -778 0
-8 -813 0
-8 -848 0
-8 -883 0
-8 -918 0
-8 -953 0
-8 -988 0
-8 -1023 0
-8 -1058 0
-8 -1093 0
-8 -1128 0
-8 -1163 0
-8 -1198 0
-8 -1233 0
-43 -78 0
-43 -113 0
-43 -148 0
-43 -183 0
-43 -218 0
-43 -253 0
-43 -288 0
-43 -323 0
-43 -358 0
-43 -393 0
-43 -428 0
-43 -463 0
-43 -498 0
-43 -533 0
-43 -568 0
-43 -603 0
-43 -638 0
-43 -673 0
-43 -708 0
-43 -743 0
-43 -778 0
-43 -813 0
-43 -848 0
-43 -883 0
-43 -918 0
-43 -953 0
-43 -988 0
-43 -1023 0
-43 -1058 0
-43 -1093 0
-43 -1128 0
-43 -1163 0
-43 -1198 0
-43 -1233 0
-78 -113 0
-78 -148 0
-78 -183 0
-78 -218 0
-78 -253 0
-78 -288 0
-78 -323 0
-78 -358 0
-78 -393 0
-78 -428 0
-78 -463 0
-78 -498 0
-78 -533 0
-78 -568 0
-78 -603 0
-78 -638 0
-78 -673 0
-78 -708 0
-78 -743 0
-78 -778 0
-78 -813 0
-78 -848 0
-78 -883 0
-78 -918 0
-78 -953 0
-78 -988 0
-78 -1023 0
-78 -1058 0
-78 -1093 0
-78 -1128 0
-78 -1163 0
-78 -1198 0
-78 -1233 0
-113 -148 0
-113 -183 0
-113 -218 0
-113 -253 0
-113 -288 0
-113 -323 0
-113 -358 0
-113 -393 0
-113 -428 0
-113 -463 0
-113 -498 0
-113 -533 0
-113 -568 0
-113 -603 0
-113 -638 0
-113 -673 0
-113 -708 0
-113 -743 0
-113 -778 0
-113 -813 0
-113 -848 0
-113 -883 0
-113 -918 0
-113 -953 0
-113 -988 0
-113 -1023 0
-113 -1058 0
-113 -1093 0
-113 -1128 0
-113 -1163 0
-113 -1198 0
-113 -1233 0
-148 -183 0
-148 -218 0
-148 -253 0
-148 -288 0
-148 -323 0
-148 -358 0
-148 -393 0
-148 -428 0
-148 -463 0
-148 -498 0
-148 -533 0
-148 -568 0
-148 -603 0
-148 -638 0
-148 -673 0
-148 -708 0
-148 -743 0
-148 -778 0
-148 -813 0
-148 -848 0
-148 -883 0
-148 -918 0
-148 -953 0
-148 -988 0
-148 -1023 0
-148 -1058 0
-148 -1093 0
-148 -1128 0
-148 -1163 0
-148 -1198 0
-148 -1233 0
-183 -218 0
-183 -253 0
-183 -288 0
-183 -323 0
-183 -358 0
-183 -393 0
-183 -428 0
-183 -463 0
-183 -498 0
-183 -533 0
-183 -568 0
-183 -603 0
-183 -638 0
-183 -673 0
-183 -708 0
-183 -743 0
-183 -778 0
-183 -813 0
-183 -848 0
-183 -883 0
-183 -918 0
-183 -953 0
-183 -988 0
-183 -1023 0
-183 -1058 0
-183 -1093 0
-183 -1128 0
-183 -1163 0
-183 -1198 0
-183 -1233 0
-218 -253 0
-218 -288 0
-218 -323 0
-218 -358 0
-218 -393 0
-218 -428 0
-218 -463 0
-218 -498 0
-218 -533 0
-218 -568 0
-218 -603 0
-218 -638 0
-218 -673 0
-218 -708 0
-218 -743 0
-218 -778 0
-218 -813 0
-218 -848 0
-218 -883 0
-218 -918 0
-218 -953 0
-218 -988 0
-218 -1023 0
-218 -1058 0
-218 -1093 0
-218 -1128 0
-218 -1163 0
-218 -1198 0
-218 -1233 0
-253 -288 0
-253 -323 0
-253 -358 0
-253 -393 0
-253 -428 0
-253 -463 0
-253 -498 0
-253 -533 0
-253 -568 0
-253 -603 0
-253 -638 0
-253 -673 0
-253 -708 0
-253 -743 0
-253 -778 0
-253 -813 0
-253 -848 0
-253 -883 0
-253 -918 0
-253 -953 0
-253 -988 0
-253 -1023 0
-253 -1058 0
-253 -1093 0
-253 -1128 0
-253 -1163 0
-253 -1198 0
-253 -1233 0
-288 -323 0
-288 -358 0
-288 -393 0
-288 -428 0
-288 -463 0
-288 -498 0
-288 -533 0
-288 -568 0
-288 -603 0
-288 -638 0
-288 -673 0
-288 -708 0
-288 -743 0
-288 -778 0
-288 -813 0
-288 -848 0
-288 -883 0
-288 -918 0
-288 -953 0
-288 -988 0
-288 -1023 0
-288 -1058 0
-288 -1093 0
-288 -1128 0
-288 -1163 0
-288 -1198 0
-288 -1233 0
-323 -358 0
-323 -393 0
-323 -428 0
-323 -463 0
-323 -498 0
-323 -533 0
-323 -568 0
-323 -603 0
-323 -638 0
-323 -673 0
-323 -708 0
-323 -743 0
-323 -778 0
-323 -813 0
-323 -848 0
-323 -883 0
-323 -918 0
-323 -953 0
-323 -988 0
-323 -1023 0
-323 -1058 0
-323 -1093 0
-323 -1128 0
-323 -1163 0
-323 -1198 0
-323 -1233 0
-358 -393 0
-358 -428 0
-358 -463 0
-358 -498 0
-358 -533 0
-358 -568 0
-358 -603 0
-358 -638 0
-358 -673 0
-358 -708 0
-358 -743 0
-358 -778 0
-358 -813 0
-358 -848 0
-358 -883 0
-358 -918 0
-358 -953 0
-358 -988 0
-358 -1023 0
-358 -1058 0
-358 -1093 0
-358 -1128 0
-358 -1163 0
-358 -1198 0
-358 -1233 0
-393 -428 0
-393 -463 0
-393 -498 0
-393 -533 0
-393 -568 0
-393 -603 0
-393 -638 0
-393 -673 0
-393 -708 0
-393 -743 0
-393 -778 0
-393 -813 0
-393 -848 0
-393 -883 0
-393 -918 0
-393 -953 0
-393 -988 0
-393 -1023 0
-393 -1058 0
-393 -1093 0
-393 -1128 0
-393 -1163 0
-393 -1198 0
-393 -1233 0
-428 -463 0
-428 -498 0
-428 -533 0
-428 -568 0
-428 -603 0
-428 -638 0
-428 -673 0
-428 -708 0
-428 -743 0
-428 -778 0
-428 -813 0
-428 -848 0
-428 -883 0
-428 -918 0
-428 -953 0
-428 -988 0
-428 -1023 0
-428 -1058 0
-428 -1093 0
-428 -1128 0
-428 -1163 0
-428 -1198 0
-428 -1233 0
-463 -498 0
-463 -533 0
-463 -568 0
-463 -603 0
-463 -638 0
-463 -673 0
-463 -708 0
-463 -743 0
-463 -778 0
-463 -813 0
-463 -848 0
-463 -883 0
-463 -918 0
-463 -953 0
-463 -988 0
-463 -1023 0
-463 -1058 0
-463 -1093 0
-463 -1128 0
-463 -1163 0
-463 -1198 0
-463 -1233 0
-498 -533 0
-498 -568 0
-498 -603 0
-498 -638 0
-498 -673 0
-498 -708 0
-498 -743 0
-498 -778 0
-498 -813 0
-498 -848 0
-498 -883 0
-498 -918 0
-498 -953 0
-498 -988 0
-498 -1023 0
-498 -1058 0
-498 -1093 0
-498 -1128 0
-498 -1163 0
-498 -1198 0
-498 -1233 0
-533 -568 0
-533 -603 0
-533 -638 0
-533 -673 0
-533 -708 0
-533 -743 0
-533 -778 0
-533 -813 0
-533 -848 0
-533 -883 0
-533 -918 0
-533 -953 0
-533 -988 0
-533 -1023 0
-533 -1058 0
-533 -1093 0
-533 -1128 0
-533 -1163 0
-533 -1198 0
-533 -1233 0
-568 -603 0
-568 -638 0
-568 -673 0
-568 -708 0
-568 -743 0
-568 -778 0
-568 -813 0
-568 -848 0
-568 -883 0
-568 -918 0
-568 -953 0
-568 -988 0
-568 -1023 0
-568 -1058 0
-568 -1093 0
-568 -1128 0
-568 -1163 0
-568 -1198 0
-568 -1233 0
-603 -638 0
-603 -673 0
-603 -708 0
-603 -743 0
-603 -778 0
-603 -813 0
-603 -848 0
-603 -883 0
-603 -918 0
-603 -953 0
-603 -988 0
-603 -1023 0
-603 -1058 0
-603 -1093 0
-603 -1128 0
-603 -1163 0
-603 -1198 0
-603 -1233 0
-638 -673 0
-638 -708 0
-638 -743 0
-638 -778 0
-638 -813 0
-638 -848 0
-638 -883 0
-638 -918 0
-638 -953 0
-638 -988 0
-638 -1023 0
-638 -1058 0
-638 -1093 0
-638 -1128 0
-638 -1163 0
-638 -1198 0
-638 -1233 0
-673 -708 0
-673 -743 0
-673 -778 0
-673 -813 0
-673 -848 0
-673 -883 0
-673 -918 0
-673 -953 0
-673 -988 0
-673 -1023 0
-673 -1058 0
-673 -1093 0
-673 -1128 0
-673 -1163 0
-673 -1198 0
-673 -1233 0
-708 -743 0
-708 -778 0
-708 -813 0
-708 -848 0
-708 -883 0
-708 -918 0
-708 -953 0
-708 -988 0
-708 -1023 0
-708 -1058 0
-708 -1093 0
-708 -1128 0
-708 -1163 0
-708 -1198 0
-708 -1233 0
-743 -778 0
-743 -813 0
-743 -848 0
-743 -883 0
-743 -918 0
-743 -953 0
-743 -988 0
-743 -1023 0
-743 -1058 0
-743 -1093 0
-743 -1128 0
-743 -1163 0
-743 -1198 0
-743 -1233 0
-778 -813 0
-778 -848 0
-778 -883 0
-778 -918 0
-778 -953 0
-778 -988 0
-778 -1023 0
-778 -1058 0
-778 -1093 0
-778 -1128 0
-778 -1163 0
-778 -1198 0
-778 -1233 0
-813 -848 0
-813 -883 0
-813 -918 0
-813 -953 0
-813 -988 0
-813 -1023 0
-813 -1058 0
-813 -1093 0
-813 -1128 0
-813 -1163 0
-813 -1198 0
-813 -1233 0
-848 -883 0
-848 -918 0
-848 -953 0
-848 -988 0
-848 -1023 0
-848 -1058 0
-848 -1093 0
-848 -1128 0
-848 -1163 0
-848 -1198 0
-848 -1233 0
-883 -918 0
-883 -953 0
-883 -988 0
-883 -1023 0
-883 -1058 0
-883 -1093 0
-883 -1128 0
-883 -1163 0
-883 -1198 0
-883 -1233 0
-918 -953 0
-918 -988 0
-918 -1023 0
-918 -1058 0
-918 -1093 0
-918 -1128 0
-918 -1163 0
-918 -1198 0
-918 -1233 0
-953 -988 0
-953 -1023 0
-953 -1058 0
-953 -1093 0
-953 -1128 0
-953 -1163 0
-953 -1198 0
-953 -1233 0
-988 -1023 0
-988 -1058 0
-988 -1093 0
-988 -1128 0
-988 -1163 0
-988 -1198 0
-988 -1233 0
-1023 -1058 0
-1023 -1093 0
-1023 -1128 0
-1023 -1163 0
-1023 -1198 0
-1023 -1233 0
-1058 -1093 0
-1058 -1128 0
-1058 -1163 0
-1058 -1198 0
-1058 -1233 0
-1093 -1128 0
-1093 -1163 0
-1093 -1198 0
-1093 -1233 0
-1128 -1163 0
-1128 -1198 0
-1128 -1233 0
-1163 -1198 0
-1163 -1233 0
-1198 -1233 0
-9 -44 0
-9 -79 0
-9 -114 0
-9 -149 0
-9 -184 0
-9 -219 0
-9 -254 0
-9 -289 0
-9 -324 0
-9 -359 0
-9 -394 0
-9 -429 0
-9 -464 0
-9 -499 0
-9 -534 0
-9 -569 0
-9 -604 0
-9 -639 0
-9 -674 0
-9 -709 0
-9 -744 0
-9 -779 0
-9 -814 0
-9 -849 0
-9 -884 0
-9 -919 0
-9 -954 0
-9 -989 0
-9 -1024 0
-9 -1059 0
-9 -1094 0
-9 -1129 0
-9 -1164 0
-9 -1199 0
-9 -1234 0
-44 -79 0
-44 -114 0
-44 -149 0
-44 -184 0
-44 -219 0
-44 -254 0
-44 -289 0
-44 -324 0
-44 -359 0
-44 -394 0
-44 -429 0
-44 -464 0
-44 -499 0
-44 -534 0
-44 -569 0
-44 -604 0
-44 -639 0
-44 -674 0
-44 -709 0
-44 -744 0
-44 -779 0
-44 -814 0
-44 -849 0
-44 -884 0
-44 -919 0
-44 -954 0
-44 -989 0
-44 -1024 0
-44 -1059 0
-44 -1094 0
-44 -1129 0
-44 -1164 0
-44 -1199 0
-44 -1234 0
-79 -114 0
-79 -149 0
-79 -184 0
-79 -219 0
-79 -254 0
-79 -289 0
-79 -324 0
-79 -359 0
-79 -394 0
-79 -429 0
-79 -464 0
-79 -499 0
-79 -534 0
-79 -569 0
-79 -604 0
-79 -639 0
-79 -674 0
-79 -709 0
-79 -744 0
-79 -779 0
-79 -814 0
-79 -849 0
-79 -884 0
-79 -919 0
-79 -954 0
-79 -989 0
-79 -1024 0
-79 -1059 0
-79 -1094 0
-79 -1129 0
-79 -1164 0
-79 -1199 0
-79 -1234 0
-114 -149 0
-114 -184 0
-114 -219 0
-114 -254 0
-114 -289 0
-114 -324 0
-114 -359 0
-114 -394 0
-114 -429 0
-114 -464 0
-114 -499 0
-114 -534 0
-114 -569 0
-114 -604 0
-114 -639 0
-114 -674 0
-114 -709 0
-114 -744 0
-114 -779 0
-114 -814 0
-114 -849 0
-114 -884 0
-114 -919 0
-114 -954 0
-114 -989 0
-114 -1024 0
-114 -1059 0
-114 -1094 0
-114 -1129 0
-114 -1164 0
-114 -1199 0
-114 -1234 0
-149 -184 0
-149 -219 0
-149 -254 0
-149 -289 0
-149 -324 0
-149 -359 0
-149 -394 0
-149 -429 0
-149 -464 0
-149 -499 0
-149 -534 0
-149 -569 0
-149 -604 0
-149 -639 0
-149 -674 0
-149 -709 0
-149 -744 0
-149 -779 0
-149 -814 0
-149 -849 0
-149 -884 0
-149 -919 0
-149 -954 0
-149 -989 0
-149 -1024 0
-149 -1059 0
-149 -1094 0
-149 -1129 0
-149 -1164 0
-149 -1199 0
-149 -1234 0
-184 -219 0
-184 -254 0
-184 -289 0
-184 -324 0
-184 -359 0
-184 -394 0
-184 -429 0
-184 -464 0
-184 -499 0
-184 -534 0
-184 -569 0
-184 -604 0
-184 -639 0
-184 -674 0
-184 -709 0
-184 -744 0
-184 -779 0
-184 -814 0
-184 -849 0
-184 -884 0
-184 -919 0
-184 -954 0
-184 -989 0
-184 -1024 0
-184 -1059 0
-184 -1094 0
-184 -1129 0
-184 -1164 0
-184 -1199 0
-184 -1234 0
-219 -254 0
-219 -289 0
-219 -324 0
-219 -359 0
-219 -394 0
-219 -429 0
-219 -464 0
-219 -499 0
-219 -534 0
-219 -569 0
-219 -604 0
-219 -639 0
-219 -674 0
-219 -709 0
-219 -744 0
-219 -779 0
-219 -814 0
-219 -849 0
-219 -884 0
-219 -919 0
-219 -954 0
-219 -989 0
-219 -1024 0
-219 -1059 0
-219 -1094 0
-219 -1129 0
-219 -1164 0
-219 -1199 0
-219 -1234 0
-254 -289 0
-254 -324 0
-254 -359 0
-254 -394 0
-254 -429 0
-254 -464 0
-254 -499 0
-254 -534 0
-254 -569 0
-254 -604 0
-254 -639 0
-254 -674 0
-254 -709 0
-254 -744 0
-254 -779 0
-254 -814 0
-254 -849 0
-254 -884 0
-254 -919 0
-254 -954 0
-254 -989 0
-254 -1024 0
-254 -1059 0
-254 -1094 0
-254 -1129 0
-254 -1164 0
-254 -1199 0
-254 -1234 0
-289 -324 0
-289 -359 0
-289 -394 0
-289 -429 0
-289 -464 0
-289 -499 0
-289 -534 0
-289 -569 0
-289 -604 0
-289 -639 0
-289 -674 0
-289 -709 0
-289 -744 0
-289 -779 0
-289 -814 0
-289 -849 0
-289 -884 0
-289 -919 0
-289 -954 0
-289 -989 0
-289 -1024 0
-289 -1059 0
-289 -1094 0
-289 -1129 0
-289 -1164 0
-289 -1199 0
-289 -1234 0
-324 -359 0
-324 -394 0
-324 -429 0
-324 -464 0
-324 -499 0
-324 -534 0
-324 -569 0
-324 -604 0
-324 -639 0
-324 -674 0
-324 -709 0
-324 -744 0
-324 -779 0
-324 -814 0
-324 -849 0
-324 -884 0
-324 -919 0
-324 -954 0
-324 -989 0
-324 -1024 0
-324 -1059 0
-324 -1094 0
-324 -1129 0
-324 -1164 0
-324 -1199 0
-324 -1234 0
-359 -394 0
-359 -429 0
-359 -464 0
-359 -499 0
-359 -534 0
-359 -569 0
-359 -604 0
-359 -639 0
-359 -674 0
-359 -709 0
-359 -744 0
-359 -779 0
-359 -814 0
-359 -849 0
-359 -884 0
-359 -919 0
-359 -954 0
-359 -989 0
-359 -1024 0
-359 -1059 0
-359 -1094 0
-359 -1129 0
-359 -1164 0
-359 -1199 0
-359 -1234 0
-394 -429 0
-394 -464 0
-394 -499 0
-394 -534 0
-394 -569 0
-394 -604 0
-394 -639 0
-394 -674 0
-394 -709 0
-394 -744 0
-394 -779 0
-394 -814 0
-394 -849 0
-394 -884 0
-394 -919 0
-394 -954 0
-394 -989 0
-394 -1024 0
-394 -1059 0
-394 -1094 0
-394 -1129 0
-394 -1164 0
-394 -1199 0
-394 -1234 0
-429 -464 0
-429 -499 0
-429 -534 0
-429 -569 0
-429 -604 0
-429 -639 0
-429 -674 0
-429 -709 0
-429 -744 0
-429 -779 0
-429 -814 0
-429 -849 0
-429 -884 0
-429 -919 0
-429 -954 0
-429 -989 0
-429 -1024 0
-429 -1059 0
-429 -1094 0
-429 -1129 0
-429 -1164 0
-429 -1199 0
-429 -1234 0
-464 -499 0
-464 -534 0
-464 -569 0
-464 -604 0
-464 -639 0
-464 -674 0
-464 -709 0
-464 -744 0
-464 -779 0
-464 -814 0
-464 -849 0
-464 -884 0
-464 -919 0
-464 -954 0
-464 -989 0
-464 -1024 0
-464 -1059 0
-464 -1094 0
-464 -1129 0
-464 -1164 0
-464 -1199 0
-464 -1234 0
-499 -534 0
-499 -569 0
-499 -604 0
-499 -639 0
-499 -674 0
-499 -709 0
-499 -744 0
-499 -779 0
-499 -814 0
-499 -849 0
-499 -884 0
-499 -919 0
-499 -954 0
-499 -989 0
-499 -1024 0
-499 -1059 0
-499 -1094 0
-499 -1129 0
-499 -1164 0
-499 -1199 0
-499 -1234 0
-534 -569 0
-534 -604 0
-534 -639 0
-534 -674 0
-534 -709 0
-534 -744 0
-534 -779 0
-534 -814 0
-534 -849 0
-534 -884 0
-534 -919 0
-534 -954 0
-534 -989 0
-534 -1024 0
-534 -1059 0
-534 -1094 0
-534 -1129 0
-534 -1164 0
-534 -1199 0
-534 -1234 0
-569 -604 0
-569 -639 0
-569 -674 0
-569 -709 0
-569 -744 0
-569 -779 0
-569 -814 0
-569 -849 0
-569 -884 0
-569 -919 0
-569 -954 0
-569 -989 0
-569 -1024 0
-569 -1059 0
-569 -1094 0
-569 -1129 0
-569 -1164 0
-569 -1199 0
-569 -1234 0
-604 -639 0
-604 -674 0
-604 -709 0
-604 -744 0
-604 -779 0
-604 -814 0
-604 -849 0
-604 -884 0
-604 -919 0
-604 -954 0
-604 -989 0
-604 -1024 0
-604 -1059 0
-604 -1094 0
-604 -1129 0
-604 -1164 0
-604 -1199 0
-604 -1234 0
-639 -674 0
-639 -709 0
-639 -744 0
-639 -779 0
-639 -814 0
-639 -849 0
-639 -884 0
-639 -919 0
-639 -954 0
-639 -989 0
-639 -1024 0
-639 -1059 0
-639 -1094 0
-639 -1129 0
-639 -1164 0
-639 -1199 0
-639 -1234 0
-674 -709 0
-674 -744 0
-674 -779 0
-674 -814 0
-674 -849 0
-674 -884 0
-674 -919 0
-674 -954 0
-674 -989 0
-674 -1024 0
-674 -1059 0
-674 -1094 0
-674 -1129 0
-674 -1164 0
-674 -1199 0
-674 -1234 0
-709 -744 0
-709 -779 0
-709 -814 0
-709 -849 0
-709 -884 0
-709 -919 0
-709 -954 0
-709 -989 0
-709 -1024 0
-709 -1059 0
-709 -1094 0
-709 -1129 0
-709 -1164 0
-709 -1199 0
-709 -1234 0
-744 -779 0
-744 -814 0
-744 -849 0
-744 -884 0
-744 -919 0
-744 -954 0
-744 -989 0
-744 -1024 0
-744 -1059 0
-744 -1094 0
-744 -1129 0
-744 -1164 0
-744 -1199 0
-744 -1234 0
-779 -814 0
-779 -849 0
-779 -884 0
-779 -919 0
-779 -954 0
-779 -989 0
-779 -1024 0
-779 -1059 0
-779 -1094 0
-779 -1129 0
-779 -1164 0
-779 -1199 0
-779 -1234 0
-814 -849 0
-814 -884 0
-814 -919 0
-814 -954 0
-814 -989 0
-814 -1024 0
-814 -1059 0
-814 -1094 0
-814 -1129 0
-814 -1164 0
-814 -1199 0
-814 -1234 0
-849 -884 0
-849 -919 0
-849 -954 0
-849 -989 0
-849 -1024 0
-849 -1059 0
-849 -1094 0
-849 -1129 0
-849 -1164 0
-849 -1199 0
-849 -1234 0
-884 -919 0
-884 -954 0
-884 -989 0
-884 -1024 0
-884 -1059 0
-884 -1094 0
-884 -1129 0
-884 -1164 0
-884 -1199 0
-884 -1234 0
-919 -954 0
-919 -989 0
-919 -1024 0
-919 -1059 0
-919 -1094 0
-919 -1129 0
-919 -1164 0
-919 -1199 0
-919 -1234 0
-954 -989 0
-954 -1024 0
-954 -1059 0
-954 -1094 0
-954 -1129 0
-954 -1164 0
-954 -1199 0
-954 -1234 0
-989 -1024 0
-989 -1059 0
-989 -1094 0
-989 -1129 0
-989 -1164 0
-989 -1199 0
-989 -1234 0
-1024 -1059 0
-1024 -1094 0
-1024 -1129 0
-1024 -1164 0
-1024 -1199 0
-1024 -1234 0
-1059 -1094 0
-1059 -1129 0
-1059 -1164 0
-1059 -1199 0
-1059 -1234 0
-1094 -1129 0
-1094 -1164 0
-1094 -1199 0
-1094 -1234 0
-1129 -1164 0
-1129 -1199 0
-1129 -1234 0
-1164 -1199 0
-1164 -1234 0
-1199 -1234 0
-10 -45 0
-10 -80 0
-10 -115 0
-10 -150 0
-10 -185 0
-10 -220 0
-10 -255 0
-10 -290 0
-10 -325 0
-10 -360 0
-10 -395 0
-10 -430 0
-10 -465 0
-10 -500 0
-10 -535 0
-10 -570 0
-10 -605 0
-10 -640 0
-10 -675 0
-10 -710 0
-10 -745 0
-10 -780 0
-10 -815 0
-10 -850 0
-10 -885 0
-10 -920 0
-10 -955 0
-10 -990 0
-10 -1025 0
-10 -1060 0
-10 -1095 0
-10 -1130 0
-10 -1165 0
-10 -1200 0
-10 -1235 0
-45 -80 0
-45 -115 0
-45 -150 0
-45 -185 0
-45 -220 0
-45 -255 0
-45 -290 0
-45 -325 0
-45 -360 0
-45 -395 0
-45 -430 0
-45 -465 0
-45 -500 0
-45 -535 0
-45 -570 0
-45 -605 0
-45 -640 0
-45 -675 0
-45 -710 0
-45 -745 0
-45 -780 0
-45 -815 0
-45 -850 0
-45 -885 0
-45 -920 0
-45 -955 0
-45 -990 0
-45 -1025 0
-45 -1060 0
-45 -1095 0
-45 -1130 0
-45 -1165 0
-45 -1200 0
-45 -1235 0
-80 -115 0
-80 -150 0
-80 -185 0
-80 -220 0
-80 -255 0
-80 -290 0
-80 -325 0
-80 -360 0
-80 -395 0
-80 -430 0
-80 -465 0
-80 -500 0
-80 -535 0
-80 -570 0
-80 -605 0
-80 -640 0
-80 -675 0
-80 -710 0
-80 -745 0
-80 -780 0
-80 -815 0
-80 -850 0
-80 -885 0
-80 -920 0
-80 -955 0
-80 -990 0
-80 -1025 0
-80 -1060 0
-80 -1095 0
-80 -1130 0
-80 -1165 0
-80 -1200 0
-80 -1235 0
-115 -150 0
-115 -185 0
-115 -220 0
-115 -255 0
-115 -290 0
-115 -325 0
-115 -360 0
-115 -395 0
-115 -430 0
-115 -465 0
-115 -500 0
-115 -535 0
-115 -570 0
-115 -605 0
-115 -640 0
-115 -675 0
-115 -710 0
-115 -745 0
-115 -780 0
-115 -815 0
-115 -850 0
-115 -885 0
-115 -920 0
-115 -955 0
-115 -990 0
-115 -1025 0
-115 -1060 0
-115 -1095 0
-115 -1130 0
-115 -1165 0
-115 -1200 0
-115 -1235 0
-150 -185 0
-150 -220 0
-150 -255 0
-150 -290 0
-150 -325 0
-150 -360 0
-150 -395 0
-150 -430 0
-150 -465 0
-150 -500 0
-150 -535 0
-150 -570 0
-150 -605 0
-150 -640 0
-150 -675 0
-150 -710 0
-150 -745 0
-150 -780 0
-150 -815 0
-150 -850 0
-150 -885 0
-150 -920 0
-150 -955 0
-150 -990 0
-150 -1025 0
-150 -1060 0
-150 -1095 0
-150 -1130 0
-150 -1165 0
-150 -1200 0
-150 -1235 0
-185 -220 0
-185 -255 0
-185 -290 0
-185 -325 0
-185 -360 0
-185 -395 0
-185 -430 0
-185 -465 0
-185 -500 0
-185 -535 0
-185 -570 0
-185 -605 0
-185 -640 0
-185 -675 0
-185 -710 0
-185 -745 0
-185 -780 0
-185 -815 0
-185 -850 0
-185 -885 0
-185 -920 0
-185 -955 0
-185 -990 0
-185 -1025 0
-185 -1060 0
-185 -1095 0
-185 -1130 0
-185 -1165 0
-185 -1200 0
-185 -1235 0
-220 -255 0
-220 -290 0
-220 -325 0
-220 -360 0
-220 -395 0
-220 -430 0
-220 -465 0
-220 -500 0
-220 -535 0
-220 -570 0
-220 -605 0
-220 -640 0
-220 -675 0
-220 -710 0
-220 -745 0
-220 -780 0
-220 -815 0
-220 -850 0
-220 -885 0
-220 -920 0
-220 -955 0
-220 -990 0
-220 -1025 0
-220 -1060 0
-220 -1095 0
-220 -1130 0
-220 -1165 0
-220 -1200 0
-220 -1235 0
-255 -290 0
-255 -325 0
-255 -360 0
-255 -395 0
-255 -430 0
-255 -465 0
-255 -500 0
-255 -535 0
-255 -570 0
-255 -605 0
-255 -640 0
-255 -675 0
-255 -710 0
-255 -745 0
-255 -780 0
-255 -815 0
-255 -850 0
-255 -885 0
-255 -920 0
-255 -955 0
-255 -990 0
-255 -1025 0
-255 -1060 0
-255 -1095 0
-255 -1130 0
-255 -1165 0
-255 -1200 0
-255 -1235 0
-290 -325 0
-290 -360 0
-290 -395 0
-290 -430 0
-290 -465 0
-290 -500 0
-290 -535 0
-290 -570 0
-290 -605 0
-290 -640 0
-290 -675 0
-290 -710 0
-290 -745 0
-290 -780 0
-290 -815 0
-290 -850 0
-290 -885 0
-290 -920 0
-290 -955 0
-290 -990 0
-290 -1025 0
-290 -1060 0
-290 -1095 0
-290 -1130 0
-290 -1165 0
-290 -1200 0
-290 -1235 0
-325 -360 0
-325 -395 0
-325 -430 0
-325 -465 0
-325 -500 0
-325 -535 0
-325 -570 0
-325 -605 0
-325 -640 0
-325 -675 0
-325 -710 0
-325 -745 0
-325 -780 0
-325 -815 0
-325 -850 0
-325 -885 0
-325 -920 0
-325 -955 0
-325 -990 0
-325 -1025 0
-325 -1060 0
-325 -1095 0
-325 -1130 0
-325 -1165 0
-325 -1200 0
-325 -1235 0
-360 -395 0
-360 -430 0
-360 -465 0
-360 -500 0
-360 -535 0
-360 -570 0
-360 -605 0
-360 -640 0
-360 -675 0
-360 -710 0
-360 -745 0
-360 -780 0
-360 -815 0
-360 -850 0
-360 -885 0
-360 -920 0
-360 -955 0
-360 -990 0
-360 -1025 0
-360 -1060 0
-360 -1095 0
-360 -1130 0
-360 -1165 0
-360 -1200 0
-360 -1235 0
-395 -430 0
-395 -465 0
-395 -500 0
-395 -535 0
-395 -570 0
-395 -605 0
-395 -640 0
-395 -675 0
-395 -710 0
-395 -745 0
-395 -780 0
-395 -815 0
-395 -850 0
-395 -885 0
-395 -920 0
-395 -955 0
-395 -990 0
-395 -1025 0
-395 -1060 0
-395 -1095 0
-395 -1130 0
-395 -1165 0
-395 -1200 0
-395 -1235 0
-430 -465 0
-430 -500 0
-430 -535 0
-430 -570 0
-430 -605 0
-430 -640 0
-430 -675 0
-430 -710 0
-430 -745 0
-430 -780 0
-430 -815 0
-430 -850 0
-430 -885 0
-430 -920 0
-430 -955 0
-430 -990 0
-430 -1025 0
-430 -1060 0
-430 -1095 0
-430 -1130 0
-430 -1165 0
-430 -1200 0
-430 -1235 0
-465 -500 0
-465 -535 0
-465 -570 0
-465 -605 0
-465 -640 0
-465 -675 0
-465 -710 0
-465 -745 0
-465 -780 0
-465 -815 0
-465 -850 0
-465 -885 0
-465 -920 0
-465 -955 0
-465 -990 0
-465 -1025 0
-465 -1060 0
-465 -1095 0
-465 -1130 0
-465 -1165 0
-465 -1200 0
-465 -1235 0
-500 -535 0
-500 -570 0
-500 -605 0
-500 -640 0
-500 -675 0
-500 -710 0
-500 -745 0
-500 -780 0
-500 -815 0
-500 -850 0
-500 -885 0
-500 -920 0
-500 -955 0
-500 -990 0
-500 -1025 0
-500 -1060 0
-500 -1095 0
-500 -1130 0
-500 -1165 0
-500 -1200 0
-500 -1235 0
-535 -570 0
-535 -605 0
-535 -640 0
-535 -675 0
-535 -710 0
-535 -745 0
-535 -780 0
-535 -815 0
-535 -850 0
-535 -885 0
-535 -920 0
-535 -955 0
-535 -990 0
-535 -1025 0
-535 -1060 0
-535 -1095 0
-535 -1130 0
-535 -1165 0
-535 -1200 0
-535 -1235 0
-570 -605 0
-570 -640 0
-570 -675 0
-570 -710 0
-570 -745 0
-570 -780 0
-570 -815 0
-570 -850 0
-570 -885 0
-570 -920 0
-570 -955 0
-570 -990 0
-570 -1025 0
-570 -1060 0
-570 -1095 0
-570 -1130 0
-570 -1165 0
-570 -1200 0
-570 -1235 0
-605 -640 0
-605 -675 0
-605 -710 0
-605 -745 0
-605 -780 0
-605 -815 0
-605 -850 0
-605 -885 0
-605 -920 0
-605 -955 0
-605 -990 0
-605 -1025 0
-605 -1060 0
-605 -1095 0
-605 -1130 0
-605 -1165 0
-605 -1200 0
-605 -1235 0
-640 -675 0
-640 -710 0
-640 -745 0
-640 -780 0
-640 -815 0
-640 -850 0
-640 -885 0
-640 -920 0
-640 -955 0
-640 -990 0
-640 -1025 0
-640 -1060 0
-640 -1095 0
-640 -1130 0
-640 -1165 0
-640 -1200 0
-640 -1235 0
-675 -710 0
-675 -745 0
-675 -780 0
-675 -815 0
-675 -850 0
-675 -885 0
-675 -920 0
-675 -955 0
-675 -990 0
-675 -1025 0
-675 -1060 0
-675 -1095 0
-675 -1130 0
-675 -1165 0
-675 -1200 0
-675 -1235 0
-710 -745 0
-710 -780 0
-710 -815 0
-710 -850 0
-710 -885 0
-710 -920 0
-710 -955 0
-710 -990 0
-710 -1025 0
-710 -1060 0
-710 -1095 0
-710 -1130 0
-710 -1165 0
-710 -1200 0
-710 -1235 0
-745 -780 0
-745 -815 0
-745 -850 0
-745 -885 0
-745 -920 0
-745 -955 0
-745 -990 0
-745 -1025 0
-745 -1060 0
-745 -1095 0
-745 -1130 0
-745 -1165 0
-745 -1200 0
-745 -1235 0
-780 -815 0
-780 -850 0
-780 -885 0
-780 -920 0
-780 -955 0
-780 -990 0
-780 -1025 0
-780 -1060 0
-780 -1095 0
-780 -1130 0
-780 -1165 0
-780 -1200 0
-780 -1235 0
-815 -850 0
-815 -885 0
-815 -920 0
-815 -955 0
-815 -990 0
-815 -1025 0
-815 -1060 0
-815 -1095 0
-815 -1130 0
-815 -1165 0
-815 -1200 0
-815 -1235 0
-850 -885 0
-850 -920 0
-850 -955 0
-850 -990 0
-850 -1025 0
-850 -1060 0
-850 -1095 0
-850 -1130 0
-850 -1165 0
-850 -1200 0
-850 -1235 0
-885 -920 0
-885 -955 0
-885 -990 0
-885 -1025 0
-885 -1060 0
-885 -1095 0
-885 -1130 0
-885 -1165 0
-885 -1200 0
-885 -1235 0
-920 -955 0
-920 -990 0
-920 -1025 0
-920 -1060 0
-920 -1095 0
-920 -1130 0
-920 -1165 0
-920 -1200 0
-920 -1235 0
-955 -990 0
-955 -1025 0
-955 -1060 0
-955 -1095 0
-955 -1130 0
-955 -1165 0
-955 -1200 0
-955 -1235 0
-990 -1025 0
-990 -1060 0
-990 -1095 0
-990 -1130 0
-990 -1165 0
-990 -1200 0
-990 -1235 0
-1025 -1060 0
-1025 -1095 0
-1025 -1130 0
-1025 -1165 0
-1025 -1200 0
-1025 -1235 0
-1060 -1095 0
-1060 -1130 0
-1060 -1165 0
-1060 -1200 0
-1060 -1235 0
-1095 -1130 0
-1095 -1165 0
-1095 -1200 0
-1095 -1235 0
-1130 -1165 0
-1130 -1200 0
-1130 -1235 0
-1165 -1200 0
-1165 -1235 0
-1200 -1235 0
-11 -46 0
-11 -81 0
-11 -116 0
-11 -151 0
-11 -186 0
-11 -221 0
-11 -256 0
-11 -291 0
-11 -326 0
-11 -361 0
-11 -396 0
-11 -431 0
-11 -466 0
-11 -501 0
-11 -536 0
-11 -571 0
-11 -606 0
-11 -641 0
-11 -676 0
-11 -711 0
-11 -746 0
-11 -781 0
-11 -816 0
-11 -851 0
-11 -886 0
-11 -921 0
-11 -956 0
-11 -991 0
-11 -1026 0
-11 -1061 0
-11 -1096 0
-11 -1131 0
-11 -1166 0
-11 -1201 0
-11 -1236 0
-46 -81 0
-46 -116 0
-46 -151 0
-46 -186 0
-46 -221 0
-46 -256 0
-46 -291 0
-46 -326 0
-46 -361 0
-46 -396 0
-46 -431 0
-46 -466 0
-46 -501 0
-46 -536 0
-46 -571 0
-46 -606 0
-46 -641 0
-46 -676 0
-46 -711 0
-46 -746 0
-46 -781 0
-46 -816 0
-46 -851 0
-46 -886 0
-46 -921 0
-46 -956 0
-46 -991 0
-46 -1026 0
-46 -1061 0
-46 -1096 0
-46 -1131 0
-46 -1166 0
-46 -1201 0
-46 -1236 0
-81 -116 0
-81 -151 0
-81 -186 0
-81 -221 0
-81 -256 0
-81 -291 0
-81 -326 0
-81 -361 0
-81 -396 0
-81 -431 0
-81 -466 0
-81 -501 0
-81 -536 0
-81 -571 0
-81 -606 0
-81 -641 0
-81 -676 0
-81 -711 0
-81 -746 0
-81 -781 0
-81 -816 0
-81 -851 0
-81 -886 0
-81 -921 0
-81 -956 0
-81 -991 0
-81 -1026 0
-81 -1061 0
-81 -1096 0
-81 -1131 0
-81 -1166 0
-81 -1201 0
-81 -1236 0
-116 -151 0
-116 -186 0
-116 -221 0
-116 -256 0
-116 -291 0
-116 -326 0
-116 -361 0
-116 -396 0
-116 -431 0
-116 -466 0
-116 -501 0
-116 -536 0
-116 -571 0
-116 -606 0
-116 -641 0
-116 -676 0
-116 -711 0
-116 -746 0
-116 -781 0
-116 -816 0
-116 -851 0
-116 -886 0
-116 -921 0
-116 -956 0
-116 -991 0
-116 -1026 0
-116 -1061 0
-116 -1096 0
-116 -1131 0
-116 -1166 0
-116 -1201 0
-116 -1236 0
-151 -186 0
-151 -221 0
-151 -256 0
-151 -291 0
-151 -326 0
-151 -361 0
-151 -396 0
-151 -431 0
-151 -466 0
-151 -501 0
-151 -536 0
-151 -571 0
-151 -606 0
-151 -641 0
-151 -676 0
-151 -711 0
-151 -746 0
-151 -781 0
-151 -816 0
-151 -851 0
-151 -886 0
-151 -921 0
-151 -956 0
-151 -991 0
-151 -1026 0
-151 -1061 0
-151 -1096 0
-151 -1131 0
-151 -1166 0
-151 -1201 0
-151 -1236 0
-186 -221 0
-186 -256 0
-186 -291 0
-186 -326 0
-186 -361 0
-186 -396 0
-186 -431 0
-186 -466 0
-186 -501 0
-186 -536 0
-186 -571 0
-186 -606 0
-186 -641 0
-186 -676 0
-186 -711 0
-186 -746 0
-186 -781 0
-186 -816 0
-186 -851 0
-186 -886 0
-186 -921 0
-186 -956 0
-186 -991 0
-186 -1026 0
-186 -1061 0
-186 -1096 0
-186 -1131 0
-186 -1166 0
-186 -1201 0
-186 -1236 0
-221 -256 0
-221 -291 0
-221 -326 0
-221 -361 0
-221 -396 0
-221 -431 0
-221 -466 0
-221 -501 0
-221 -536 0
-221 -571 0
-221 -606 0
-221 -641 0
-221 -676 0
-221 -711 0
-221 -746 0
-221 -781 0
-221 -816 0
-221 -851 0
-221 -886 0
-221 -921 0
-221 -956 0
-221 -991 0
-221 -1026 0
-221 -1061 0
-221 -1096 0
-221 -1131 0
-221 -1166 0
-221 -1201 0
-221 -1236 0
-256 -291 0
-256 -326 0
-256 -361 0
-256 -396 0
-256 -431 0
-256 -466 0
-256 -501 0
-256 -536 0
-256 -571 0
-256 -606 0
-256 -641 0
-256 -676 0
-256 -711 0
-256 -746 0
-256 -781 0
-256 -816 0
-256 -851 0
-256 -886 0
-256 -921 0
-256 -956 0
-256 -991 0
-256 -1026 0
-256 -1061 0
-256 -1096 0
-256 -1131 0
-256 -1166 0
-256 -1201 0
-256 -1236 0
-291 -326 0
-291 -361 0
-291 -396 0
-291 -431 0
-291 -466 0
-291 -501 0
-291 -536 0
-291 -571 0
-291 -606 0
-291 -641 0
-291 -676 0
-291 -711 0
-291 -746 0
-291 -781 0
-291 -816 0
-291 -851 0
-291 -886 0
-291 -921 0
-291 -956 0
-291 -991 0
-291 -1026 0
-291 -1061 0
-291 -1096 0
-291 -1131 0
-291 -1166 0
-291 -1201 0
-291 -1236 0
-326 -361 0
-326 -396 0
-326 -431 0
-326 -466 0
-326 -501 0
-326 -536 0
-326 -571 0
-326 -606 0
-326 -641 0
-326 -676 0
-326 -711 0
-326 -746 0
-326 -781 0
-326 -816 0
-326 -851 0
-326 -886 0
-326 -921 0
-326 -956 0
-326 -991 0
-326 -1026 0
-326 -1061 0
-326 -1096 0
-326 -1131 0
-326 -1166 0
-326 -1201 0
-326 -1236 0
-361 -396 0
-361 -431 0
-361 -466 0
-361 -501 0
-361 -536 0
-361 -571 0
-361 -606 0
-361 -641 0
-361 -676 0
-361 -711 0
-361 -746 0
-361 -781 0
-361 -816 0
-361 -851 0
-361 -886 0
-361 -921 0
-361 -956 0
-361 -991 0
-361 -1026 0
-361 -1061 0
-361 -1096 0
-361 -1131 0
-361 -1166 0
-361 -1201 0
-361 -1236 0
-396 -431 0
-396 -466 0
-396 -501 0
-396 -536 0
-396 -571 0
-396 -606 0
-396 -641 0
-396 -676 0
-396 -711 0
-396 -746 0
-396 -781 0
-396 -816 0
-396 -851 0
-396 -886 0
-396 -921 0
-396 -956 0
-396 -991 0
-396 -1026 0
-396 -1061 0
-396 -1096 0
-396 -1131 0
-396 -1166 0
-396 -1201 0
-396 -1236 0
-431 -466 0
-431 -501 0
-431 -536 0
-431 -571 0
-431 -606 0
-431 -641 0
-431 -676 0
-431 -711 0
-431 -746 0
-431 -781 0
-431 -816 0
-431 -851 0
-431 -886 0
-431 -921 0
-431 -956 0
-431 -991 0
-431 -1026 0
-431 -1061 0
-431 -1096 0
-431 -1131 0
-431 -1166 0
-431 -1201 0
-431 -1236 0
-466 -501 0
-466 -536 0
-466 -571 0
-466 -606 0
-466 -641 0
-466 -676 0
-466 -711 0
-466 -746 0
-466 -781 0
-466 -816 0
-466 -851 0
-466 -886 0
-466 -921 0
-466 -956 0
-466 -991 0
-466 -1026 0
-466 -1061 0
-466 -1096 0
-466 -1131 0
-466 -1166 0
-466 -1201 0
-466 -1236 0
-501 -536 0
-501 -571 0
-501 -606 0
-501 -641 0
-501 -676 0
-501 -711 0
-501 -746 0
-501 -781 0
-501 -816 0
-501 -851 0
-501 -886 0
-501 -921 0
-501 -956 0
-501 -991 0
-501 -1026 0
-501 -1061 0
-501 -1096 0
-501 -1131 0
-501 -1166 0
-501 -1201 0
-501 -1236 0
-536 -571 0
-536 -606 0
-536 -641 0
-536 -676 0
-536 -711 0
-536 -746 0
-536 -781 0
-536 -816 0
-536 -851 0
-536 -886 0
-536 -921 0
-536 -956 0
-536 -991 0
-536 -1026 0
-536 -1061 0
-536 -1096 0
-536 -1131 0
-536 -1166 0
-536 -1201 0
-536 -1236 0
-571 -606 0
-571 -641 0
-571 -676 0
-571 -711 0
-571 -746 0
-571 -781 0
-571 -816 0
-571 -851 0
-571 -886 0
-571 -921 0
-571 -956 0
-571 -991 0
-571 -1026 0
-571 -1061 0
-571 -1096 0
-571 -1131 0
-571 -1166 0
-571 -1201 0
-571 -1236 0
-606 -641 0
-606 -676 0
-606 -711 0
-606 -746 0
-606 -781 0
-606 -816 0
-606 -851 0
-606 -886 0
-606 -921 0
-606 -956 0
-606 -991 0
-606 -1026 0
-606 -1061 0
-606 -1096 0
-606 -1131 0
-606 -1166 0
-606 -1201 0
-606 -1236 0
-641 -676 0
-641 -711 0
-641 -746 0
-641 -781 0
-641 -816 0
-641 -851 0
-641 -886 0
-641 -921 0
-641 -956 0
-641 -991 0
-641 -1026 0
-641 -1061 0
-641 -1096 0
-641 -1131 0
-641 -1166 0
-641 -1201 0
-641 -1236 0
-676 -711 0
-676 -746 0
-676 -781 0
-676 -816 0
-676 -851 0
-676 -886 0
-676 -921 0
-676 -956 0
-676 -991 0
-676 -1026 0
-676 -1061 0
-676 -1096 0
-676 -1131 0
-676 -1166 0
-676 -1201 0
-676 -1236 0
-711 -746 0
-711 -781 0
-711 -816 0
-711 -851 0
-711 -886 0
-711 -921 0
-711 -956 0
-711 -991 0
-711 -1026 0
-711 -1061 0
-711 -1096 0
-711 -1131 0
-711 -1166 0
-711 -1201 0
-711 -1236 0
-746 -781 0
-746 -816 0
-746 -851 0
-746 -886 0
-746 -921 0
-746 -956 0
-746 -991 0
-746 -1026 0
-746 -1061 0
-746 -1096 0
-746 -1131 0
-746 -1166 0
-746 -1201 0
-746 -1236 0
-781 -816 0
-781 -851 0
-781 -886 0
-781 -921 0
-781 -956 0
-781 -991 0
-781 -1026 0
-781 -1061 0
-781 -1096 0
-781 -1131 0
-781 -1166 0
-781 -1201 0
-781 -1236 0
-816 -851 0
-816 -886 0
-816 -921 0
-816 -956 0
-816 -991 0
-816 -1026 0
-816 -1061 0
-816 -1096 0
-816 -1131 0
-816 -1166 0
-816 -1201 0
-816 -1236 0
-851 -886 0
-851 -921 0
-851 -956 0
-851 -991 0
-851 -1026 0
-851 -1061 0
-851 -1096 0
-851 -1131 0
-851 -1166 0
-851 -1201 0
-851 -1236 0
-886 -921 0
-886 -956 0
-886 -991 0
-886 -1026 0
-886 -1061 0
-886 -1096 0
-886 -1131 0
-886 -1166 0
-886 -1201 0
-886 -1236 0
-921 -956 0
-921 -991 0
-921 -1026 0
-921 -1061 0
-921 -1096 0
-921 -1131 0
-921 -1166 0
-921 -1201 0
-921 -1236 0
-956 -991 0
-956 -1026 0
-956 -1061 0
-956 -1096 0
-956 -1131 0
-956 -1166 0
-956 -1201 0
-956 -1236 0
-991 -1026 0
-991 -1061 0
-991 -1096 0
-991 -1131 0
-991 -1166 0
-991 -1201 0
-991 -1236 0
-1026 -1061 0
-1026 -1096 0
-1026 -1131 0
-1026 -1166 0
-1026 -1201 0
-1026 -1236 0
-1061 -1096 0
-1061 -1131 0
-1061 -1166 0
-1061 -1201 0
-1061 -1236 0
-1096 -1131 0
-1096 -1166 0
-1096 -1201 0
-1096 -1236 0
-1131 -1166 0
-1131 -1201 0
-1131 -1236 0
-1166 -1201 0
-1166 -1236 0
-1201 -1236 0
-12 -47 0
-12 -82 0
-12 -117 0
-12 -152 0
-12 -187 0
-12 -222 0
-12 -257 0
-12 -292 0
-12 -327 0
-12 -362 0
-12 -397 0
-12 -432 0
-12 -467 0
-12 -502 0
-12 -537 0
-12 -572 0
-12 -607 0
-12 -642 0
-12 -677 0
-12 -712 0
-12 -747 0
-12 -782 0
-12 -817 0
-12 -852 0
-12 -887 0
-12 -922 0
-12 -957 0
-12 -992 0
-12 -1027 0
-12 -1062 0
-12 -1097 0
-12 -1132 0
-12 -1167 0
-12 -1202 0
-12 -1237 0
-47 -82 0
-47 -117 0
-47 -152 0
-47 -187 0
-47 -222 0
-47 -257 0
-47 -292 0
-47 -327 0
-47 -362 0
-47 -397 0
-47 -432 0
-47 -467 0
-47 -502 0
-47 -537 0
-47 -572 0
-47 -607 0
-47 -642 0
-47 -677 0
-47 -712 0
-47 -747 0
-47 -782 0
-47 -817 0
-47 -852 0
-47 -887 0
-47 -922 0
-47 -957 0
-47 -992 0
-47 -1027 0
-47 -1062 0
-47 -1097 0
-47 -1132 0
-47 -1167 0
-47 -1202 0
-47 -1237 0
-82 -117 0
-82 -152 0
-82 -187 0
-82 -222 0
-82 -257 0
-82 -292 0
-82 -327 0
-82 -362 0
-82 -397 0
-82 -432 0
-82 -467 0
-82 -502 0
-82 -537 0
-82 -572 0
-82 -607 0
-82 -642 0
-82 -677 0
-82 -712 0
-82 -747 0
-82 -782 0
-82 -817 0
-82 -852 0
-82 -887 0
-82 -922 0
-82 -957 0
-82 -992 0
-82 -1027 0
-82 -1062 0
-82 -1097 0
-82 -1132 0
-82 -1167 0
-82 -1202 0
-82 -1237 0
-117 -152 0
-117 -187 0
-117 -222 0
-117 -257 0
-117 -292 0
-117 -327 0
-117 -362 0
-117 -397 0
-117 -432 0
-117 -467 0
-117 -502 0
-117 -537 0
-117 -572 0
-117 -607 0
-117 -642 0
-117 -677 0
-117 -712 0
-117 -747 0
-117 -782 0
-117 -817 0
-117 -852 0
-117 -887 0
-117 -922 0
-117 -957 0
-117 -992 0
-117 -1027 0
-117 -1062 0
-117 -1097 0
-117 -1132 0
-117 -1167 0
-117 -1202 0
-117 -1237 0
-152 -187 0
-152 -222 0
-152 -257 0
-152 -292 0
-152 -327 0
-152 -362 0
-152 -397 0
-152 -432 0
-152 -467 0
-152 -502 0
-152 -537 0
-152 -572 0
-152 -607 0
-152 -642 0
-152 -677 0
-152 -712 0
-152 -747 0
-152 -782 0
-152 -817 0
-152 -852 0
-152 -887 0
-152 -922 0
-152 -957 0
-152 -992 0
-152 -1027 0
-152 -1062 0
-152 -1097 0
-152 -1132 0
-152 -1167 0
-152 -1202 0
-152 -1237 0
-187 -222 0
-187 -257 0
-187 -292 0
-187 -327 0
-187 -362 0
-187 -397 0
-187 -432 0
-187 -467 0
-187 -502 0
-187 -537 0
-187 -572 0
-187 -607 0
-187 -642 0
-187 -677 0
-187 -712 0
-187 -747 0
-187 -782 0
-187 -817 0
-187 -852 0
-187 -887 0
-187 -922 0
-187 -957 0
-187 -992 0
-187 -1027 0
-187 -1062 0
-187 -1097 0
-187 -1132 0
-187 -1167 0
-187 -1202 0
-187 -1237 0
-222 -257 0
-222 -292 0
-222 -327 0
-222 -362 0
-222 -397 0
-222 -432 0
-222 -467 0
-222 -502 0
-222 -537 0
-222 -572 0
-222 -607 0
-222 -642 0
-222 -677 0
-222 -712 0
-222 -747 0
-222 -782 0
-222 -817 0
-222 -852 0
-222 -887 0
-222 -922 0
-222 -957 0
-222 -992 0
-222 -1027 0
-222 -1062 0
-222 -1097 0
-222 -1132 0
-222 -1167 0
-222 -1202 0
-222 -1237 0
-257 -292 0
-257 -327 0
-257 -362 0
-257 -397 0
-257 -432 0
-257 -467 0
-257 -502 0
-257 -537 0
-257 -572 0
-257 -607 0
-257 -642 0
-257 -677 0
-257 -712 0
-257 -747 0
-257 -782 0
-257 -817 0
-257 -852 0
-257 -887 0
-257 -922 0
-257 -957 0
-257 -992 0
-257 -1027 0
-257 -1062 0
-257 -1097 0
-257 -1132 0
-257 -1167 0
-257 -1202 0
-257 -1237 0
-292 -327 0
-292 -362 0
-292 -397 0
-292 -432 0
-292 -467 0
-292 -502 0
-292 -537 0
-292 -572 0
-292 -607 0
-292 -642 0
-292 -677 0
-292 -712 0
-292 -747 0
-292 -782 0
-292 -817 0
-292 -852 0
-292 -887 0
-292 -922 0
-292 -957 0
-292 -992 0
-292 -1027 0
-292 -1062 0
-292 -1097 0
-292 -1132 0
-292 -1167 0
-292 -1202 0
-292 -1237 0
-327 -362 0
-327 -397 0
-327 -432 0
-327 -467 0
-327 -502 0
-327 -537 0
-327 -572 0
-327 -607 0
-327 -642 0
-327 -677 0
-327 -712 0
-327 -747 0
-327 -782 0
-327 -817 0
-327 -852 0
-327 -887 0
-327 -922 0
-327 -957 0
-327 -992 0
-327 -1027 0
-327 -1062 0
-327 -1097 0
-327 -1132 0
-327 -1167 0
-327 -1202 0
-327 -1237 0
-362 -397 0
-362 -432 0
-362 -467 0
-362 -502 0
-362 -537 0
-362 -572 0
-362 -607 0
-362 -642 0
-362 -677 0
-362 -712 0
-362 -747 0
-362 -782 0
-362 -817 0
-362 -852 0
-362 -887 0
-362 -922 0
-362 -957 0
-362 -992 0
-362 -1027 0
-362 -1062 0
-362 -1097 0
-362 -1132 0
-362 -1167 0
-362 -1202 0
-362 -1237 0
-397 -432 0
-397 -467 0
-397 -502 0
-397 -537 0
-397 -572 0
-397 -607 0
-397 -642 0
-397 -677 0
-397 -712 0
-397 -747 0
-397 -782 0
-397 -817 0
-397 -852 0
-397 -887 0
-397 -922 0
-397 -957 0
-397 -992 0
-397 -1027 0
-397 -1062 0
-397 -1097 0
-397 -1132 0
-397 -1167 0
-397 -1202 0
-397 -1237 0
-432 -467 0
-432 -502 0
-432 -537 0
-432 -572 0
-432 -607 0
-432 -642 0
-432 -677 0
-432 -712 0
-432 -747 0
-432 -782 0
-432 -817 0
-432 -852 0
-432 -887 0
-432 -922 0
-432 -957 0
-432 -992 0
-432 -1027 0
-432 -1062 0
-432 -1097 0
-432 -1132 0
-432 -1167 0
-432 -1202 0
-432 -1237 0
-467 -502 0
-467 -537 0
-467 -572 0
-467 -607 0
-467 -642 0
-467 -677 0
-467 -712 0
-467 -747 0
-467 -782 0
-467 -817 0
-467 -852 0
-467 -887 0
-467 -922 0
-467 -957 0
-467 -992 0
-467 -1027 0
-467 -1062 0
-467 -1097 0
-467 -1132 0
-467 -1167 0
-467 -1202 0
-467 -1237 0
-502 -537 0
-502 -572 0
-502 -607 0
-502 -642 0
-502 -677 0
-502 -712 0
-502 -747 0
-502 -782 0
-502 -817 0
-502 -852 0
-502 -887 0
-502 -922 0
-502 -957 0
-502 -992 0
-502 -1027 0
-502 -1062 0
-502 -1097 0
-502 -1132 0
-502 -1167 0
-502 -1202 0
-502 -1237 0
-537 -572 0
-537 -607 0
-537 -642 0
-537 -677 0
-537 -712 0
-537 -747 0
-537 -782 0
-537 -817 0
-537 -852 0
-537 -887 0
-537 -922 0
-537 -957 0
-537 -992 0
-537 -1027 0
-537 -1062 0
-537 -1097 0
-537 -1132 0
-537 -1167 0
-537 -1202 0
-537 -1237 0
-572 -607 0
-572 -642 0
-572 -677 0
-572 -712 0
-572 -747 0
-572 -782 0
-572 -817 0
-572 -852 0
-572 -887 0
-572 -922 0
-572 -957 0
-572 -992 0
-572 -1027 0
-572 -1062 0
-572 -1097 0
-572 -1132 0
-572 -1167 0
-572 -1202 0
-572 -1237 0
-607 -642 0
-607 -677 0
-607 -712 0
-607 -747 0
-607 -782 0
-607 -817 0
-607 -852 0
-607 -887 0
-607 -922 0
-607 -957 0
-607 -992 0
-607 -1027 0
-607 -1062 0
-607 -1097 0
-607 -1132 0
-607 -1167 0
-607 -1202 0
-607 -1237 0
-642 -677 0
-642 -712 0
-642 -747 0
-642 -782 0
-642 -817 0
-642 -852 0
-642 -887 0
-642 -922 0
-642 -957 0
-642 -992 0
-642 -1027 0
-642 -1062 0
-642 -1097 0
-642 -1132 0
-642 -1167 0
-642 -1202 0
-642 -1237 0
-677 -712 0
-677 -747 0
-677 -782 0
-677 -817 0
-677 -852 0
-677 -887 0
-677 -922 0
-677 -957 0
-677 -992 0
-677 -1027 0
-677 -1062 0
-677 -1097 0
-677 -1132 0
-677 -1167 0
-677 -1202 0
-677 -1237 0
-712 -747 0
-712 -782 0
-712 -817 0
-712 -852 0
-712 -887 0
-712 -922 0
-712 -957 0
-712 -992 0
-712 -1027 0
-712 -1062 0
-712 -1097 0
-712 -1132 0
-712 -1167 0
-712 -1202 0
-712 -1237 0
-747 -782 0
-747 -817 0
-747 -852 0
-747 -887 0
-747 -922 0
-747 -957 0
-747 -992 0
-747 -1027 0
-747 -1062 0
-747 -1097 0
-747 -1132 0
-747 -1167 0
-747 -1202 0
-747 -1237 0
-782 -817 0
-782 -852 0
-782 -887 0
-782 -922 0
-782 -957 0
-782 -992 0
-782 -1027 0
-782 -1062 0
-782 -1097 0
-782 -1132 0
-782 -1167 0
-782 -1202 0
-782 -1237 0
-817 -852 0
-817 -887 0
-817 -922 0
-817 -957 0
-817 -992 0
-817 -1027 0
-817 -1062 0
-817 -1097 0
-817 -1132 0
-817 -1167 0
-817 -1202 0
-817 -1237 0
-852 -887 0
-852 -922 0
-852 -957 0
-852 -992 0
-852 -1027 0
-852 -1062 0
-852 -1097 0
-852 -1132 0
-852 -1167 0
-852 -1202 0
-852 -1237 0
-887 -922 0
-887 -957 0
-887 -992 0
-887 -1027 0
-887 -1062 0
-887 -1097 0
-887 -1132 0
-887 -1167 0
-887 -1202 0
-887 -1237 0
-922 -957 0
-922 -992 0
-922 -1027 0
-922 -1062 0
-922 -1097 0
-922 -1132 0
-922 -1167 0
-922 -1202 0
-922 -1237 0
-957 -992 0
-957 -1027 0
-957 -1062 0
-957 -1097 0
-957 -1132 0
-957 -1167 0
-957 -1202 0
-957 -1237 0
-992 -1027 0
-992 -1062 0
-992 -1097 0
-992 -1132 0
-992 -1167 0
-992 -1202 0
-992 -1237 0
-1027 -1062 0
-1027 -1097 0
-1027 -1132 0
-1027 -1167 0
-1027 -1202 0
-1027 -1237 0
-1062 -1097 0
-1062 -1132 0
-1062 -1167 0
-1062 -1202 0
-1062 -1237 0
-1097 -1132 0
-1097 -1167 0
-1097 -1202 0
-1097 -1237 0
-1132 -1167 0
-1132 -1202 0
-1132 -1237 0
-1167 -1202 0
-1167 -1237 0
-1202 -1237 0
-13 -48 0
-13 -83 0
-13 -118 0
-13 -153 0
-13 -188 0
-13 -223 0
-13 -258 0
-13 -293 0
-13 -328 0
-13 -363 0
-13 -398 0
-13 -433 0
-13 -468 0
-13 -503 0
-13 -538 0
-13 -573 0
-13 -608 0
-13 -643 0
-13 -678 0
-13 -713 0
-13 -748 0
-13 -783 0
-13 -818 0
-13 -853 0
-13 -888 0
-13 -923 0
-13 -958 0
-13 -993 0
-13 -1028 0
-13 -1063 0
-13 -1098 0
-13 -1133 0
-13 -1168 0
-13 -1203 0
-13 -1238 0
-48 -83 0
-48 -118 0
-48 -153 0
-48 -188 0
-48 -223 0
-48 -258 0
-48 -293 0
-48 -328 0
-48 -363 0
-48 -398 0
-48 -433 0
-48 -468 0
-48 -503 0
-48 -538 0
-48 -573 0
-48 -608 0
-48 -643 0
-48 -678 0
-48 -713 0
-48 -748 0
-48 -783 0
-48 -818 0
-48 -853 0
-48 -888 0
-48 -923 0
-48 -958 0
-48 -993 0
-48 -1028 0
-48 -1063 0
-48 -1098 0
-48 -1133 0
-48 -1168 0
-48 -1203 0
-48 -1238 0
-83 -118 0
-83 -153 0
-83 -188 0
-83 -223 0
-83 -258 0
-83 -293 0
-83 -328 0
-83 -363 0
-83 -398 0
-83 -433 0
-83 -468 0
-83 -503 0
-83 -538 0
-83 -573 0
-83 -608 0
-83 -643 0
-83 -678 0
-83 -713 0
-83 -748 0
-83 -783 0
-83 -818 0
-83 -853 0
-83 -888 0
-83 -923 0
-83 -958 0
-83 -993 0
-83 -1028 0
-83 -1063 0
-83 -1098 0
-83 -1133 0
-83 -1168 0
-83 -1203 0
-83 -1238 0
-118 -153 0
-118 -188 0
-118 -223 0
-118 -258 0
-118 -293 0
-118 -328 0
-118 -363 0
-118 -398 0
-118 -433 0
-118 -468 0
-118 -503 0
-118 -538 0
-118 -573 0
-118 -608 0
-118 -643 0
-118 -678 0
-118 -713 0
-118 -748 0
-118 -783 0
-118 -818 0
-118 -853 0
-118 -888 0
-118 -923 0
-118 -958 0
-118 -993 0
-118 -1028 0
-118 -1063 0
-118 -1098 0
-118 -1133 0
-118 -1168 0
-118 -1203 0
-118 -1238 0
-153 -188 0
-153 -223 0
-153 -258 0
-153 -293 0
-153 -328 0
-153 -363 0
-153 -398 0
-153 -433 0
-153 -468 0
-153 -503 0
-153 -538 0
-153 -573 0
-153 -608 0
-153 -643 0
-153 -678 0
-153 -713 0
-153 -748 0
-153 -783 0
-153 -818 0
-153 -853 0
-153 -888 0
-153 -923 0
-153 -958 0
-153 -993 0
-153 -1028 0
-153 -1063 0
-153 -1098 0
-153 -1133 0
-153 -1168 0
-153 -1203 0
-153 -1238 0
-188 -223 0
-188 -258 0
-188 -293 0
-188 -328 0
-188 -363 0
-188 -398 0
-188 -433 0
-188 -468 0
-188 -503 0
-188 -538 0
-188 -573 0
-188 -608 0
-188 -643 0
-188 -678 0
-188 -713 0
-188 -748 0
-188 -783 0
-188 -818 0
-188 -853 0
-188 -888 0
-188 -923 0
-188 -958 0
-188 -993 0
-188 -1028 0
-188 -1063 0
-188 -1098 0
-188 -1133 0
-188 -1168 0
-188 -1203 0
-188 -1238 0
-223 -258 0
-223 -293 0
-223 -328 0
-223 -363 0
-223 -398 0
-223 -433 0
-223 -468 0
-223 -503 0
-223 -538 0
-223 -573 0
-223 -608 0
-223 -643 0
-223 -678 0
-223 -713 0
-223 -748 0
-223 -783 0
-223 -818 0
-223 -853 0
-223 -888 0
-223 -923 0
-223 -958 0
-223 -993 0
-223 -1028 0
-223 -1063 0
-223 -1098 0
-223 -1133 0
-223 -1168 0
-223 -1203 0
-223 -1238 0
-258 -293 0
-258 -328 0
-258 -363 0
-258 -398 0
-258 -433 0
-258 -468 0
-258 -503 0
-258 -538 0
-258 -573 0
-258 -608 0
-258 -643 0
-258 -678 0
-258 -713 0
-258 -748 0
-258 -783 0
-258 -818 0
-258 -853 0
-258 -888 0
-258 -923 0
-258 -958 0
-258 -993 0
-258 -1028 0
-258 -1063 0
-258 -1098 0
-258 -1133 0
-258 -1168 0
-258 -1203 0
-258 -1238 0
-293 -328 0
-293 -363 0
-293 -398 0
-293 -433 0
-293 -468 0
-293 -503 0
-293 -538 0
-293 -573 0
-293 -608 0
-293 -643 0
-293 -678 0
-293 -713 0
-293 -748 0
-293 -783 0
-293 -818 0
-293 -853 0
-293 -888 0
-293 -923 0
-293 -958 0
-293 -993 0
-293 -1028 0
-293 -1063 0
-293 -1098 0
-293 -1133 0
-293 -1168 0
-293 -1203 0
-293 -1238 0
-328 -363 0
-328 -398 0
-328 -433 0
-328 -468 0
-328 -503 0
-328 -538 0
-328 -573 0
-328 -608 0
-328 -643 0
-328 -678 0
-328 -713 0
-328 -748 0
-328 -783 0
-328 -818 0
-328 -853 0
-328 -888 0
-328 -923 0
-328 -958 0
-328 -993 0
-328 -1028 0
-328 -1063 0
-328 -1098 0
-328 -1133 0
-328 -1168 0
-328 -1203 0
-328 -1238 0
-363 -398 0
-363 -433 0
-363 -468 0
-363 -503 0
-363 -538 0
-363 -573 0
-363 -608 0
-363 -643 0
-363 -678 0
-363 -713 0
-363 -748 0
-363 -783 0
-363 -818 0
-363 -853 0
-363 -888 0
-363 -923 0
-363 -958 0
-363 -993 0
-363 -1028 0
-363 -1063 0
-363 -1098 0
-363 -1133 0
-363 -1168 0
-363 -1203 0
-363 -1238 0
-398 -433 0
-398 -468 0
-398 -503 0
-398 -538 0
-398 -573 0
-398 -608 0
-398 -643 0
-398 -678 0
-398 -713 0
-398 -748 0
-398 -783 0
-398 -818 0
-398 -853 0
-398 -888 0
-398 -923 0
-398 -958 0
-398 -993 0
-398 -1028 0
-398 -1063 0
-398 -1098 0
-398 -1133 0
-398 -1168 0
-398 -1203 0
-398 -1238 0
-433 -468 0
-433 -503 0
-433 -538 0
-433 -573 0
-433 -608 0
-433 -643 0
-433 -678 0
-433 -713 0
-433 -748 0
-433 -783 0
-433 -818 0
-433 -853 0
-433 -888 0
-433 -923 0
-433 -958 0
-433 -993 0
-433 -1028 0
-433 -1063 0
-433 -1098 0
-433 -1133 0
-433 -1168 0
-433 -1203 0
-433 -1238 0
-468 -503 0
-468 -538 0
-468 -573 0
-468 -608 0
-468 -643 0
-468 -678 0
-468 -713 0
-468 -748 0
-468 -783 0
-468 -818 0
-468 -853 0
-468 -888 0
-468 -923 0
-468 -958 0
-468 -993 0
-468 -1028 0
-468 -1063 0
-468 -1098 0
-468 -1133 0
-468 -1168 0
-468 -1203 0
-468 -1238 0
-503 -538 0
-503 -573 0
-503 -608 0
-503 -643 0
-503 -678 0
-503 -713 0
-503 -748 0
-503 -783 0
-503 -818 0
-503 -853 0
-503 -888 0
-503 -923 0
-503 -958 0
-503 -993 0
-503 -1028 0
-503 -1063 0
-503 -1098 0
-503 -1133 0
-503 -1168 0
-503 -1203 0
-503 -1238 0
-538 -573 0
-538 -608 0
-538 -643 0
-538 -678 0
-538 -713 0
-538 -748 0
-538 -783 0
-538 -818 0
-538 -853 0
-538 -888 0
-538 -923 0
-538 -958 0
-538 -993 0
-538 -1028 0
-538 -1063 0
-538 -1098 0
-538 -1133 0
-538 -1168 0
-538 -1203 0
-538 -1238 0
-573 -608 0
-573 -643 0
-573 -678 0
-573 -713 0
-573 -748 0
-573 -783 0
-573 -818 0
-573 -853 0
-573 -888 0
-573 -923 0
-573 -958 0
-573 -993 0
-573 -1028 0
-573 -1063 0
-573 -1098 0
-573 -1133 0
-573 -1168 0
-573 -1203 0
-573 -1238 0
-608 -643 0
-608 -678 0
-608 -713 0
-608 -748 0
-608 -783 0
-608 -818 0
-608 -853 0
-608 -888 0
-608 -923 0
-608 -958 0
-608 -993 0
-608 -1028 0
-608 -1063 0
-608 -1098 0
-608 -1133 0
-608 -1168 0
-608 -1203 0
-608 -1238 0
-643 -678 0
-643 -713 0
-643 -748 0
-643 -783 0
-643 -818 0
-643 -853 0
-643 -888 0
-643 -923 0
-643 -958 0
-643 -993 0
-643 -1028 0
-643 -1063 0
-643 -1098 0
-643 -1133 0
-643 -1168 0
-643 -1203 0
-643 -1238 0
-678 -713 0
-678 -748 0
-678 -783 0
-678 -818 0
-678 -853 0
-678 -888 0
-678 -923 0
-678 -958 0
-678 -993 0
-678 -1028 0
-678 -1063 0
-678 -1098 0
-678 -1133 0
-678 -1168 0
-678 -1203 0
-678 -1238 0
-713 -748 0
-713 -783 0
-713 -818 0
-713 -853 0
-713 -888 0
-713 -923 0
-713 -958 0
-713 -993 0
-713 -1028 0
-713 -1063 0
-713 -1098 0
-713 -1133 0
-713 -1168 0
-713 -1203 0
-713 -1238 0
-748 -783 0
-748 -818 0
-748 -853 0
-748 -888 0
-748 -923 0
-748 -958 0
-748 -993 0
-748 -1028 0
-748 -1063 0
-748 -1098 0
-748 -1133 0
-748 -1168 0
-748 -1203 0
-748 -1238 0
-783 -818 0
-783 -853 0
-783 -888 0
-783 -923 0
-783 -958 0
-783 -993 0
-783 -1028 0
-783 -1063 0
-783 -1098 0
-783 -1133 0
-783 -1168 0
-783 -1203 0
-783 -1238 0
-818 -853 0
-818 -888 0
-818 -923 0
-818 -958 0
-818 -993 0
-818 -1028 0
-818 -1063 0
-818 -1098 0
-818 -1133 0
-818 -1168 0
-818 -1203 0
-818 -1238 0
-853 -888 0
-853 -923 0
-853 -958 0
-853 -993 0
-853 -1028 0
-853 -1063 0
-853 -1098 0
-853 -1133 0
-853 -1168 0
-853 -1203 0
-853 -1238 0
-888 -923 0
-888 -958 0
-888 -993 0
-888 -1028 0
-888 -1063 0
-888 -1098 0
-888 -1133 0
-888 -1168 0
-888 -1203 0
-888 -1238 0
-923 -958 0
-923 -993 0
-923 -1028 0
-923 -1063 0
-923 -1098 0
-923 -1133 0
-923 -1168 0
-923 -1203 0
-923 -1238 0
-958 -993 0
-958 -1028 0
-958 -1063 0
-958 -1098 0
-958 -1133 0
-958 -1168 0
-958 -1203 0
-958 -1238 0
-993 -1028 0
-993 -1063 0
-993 -1098 0
-993 -1133 0
-993 -1168 0
-993 -1203 0
-993 -1238 0
-1028 -1063 0
-1028 -1098 0
-1028 -1133 0
-1028 -1168 0
-1028 -1203 0
-1028 -1238 0
-1063 -1098 0
-1063 -1133 0
-1063 -1168 0
-1063 -1203 0
-1063 -1238 0
-1098 -1133 0
-1098 -1168 0
-1098 -1203 0
-1098 -1238 0
-1133 -1168 0
-1133 -1203 0
-1133 -1238 0
-1168 -1203 0
-1168 -1238 0
-1203 -1238 0
-14 -49 0
-14 -84 0
-14 -119 0
-14 -154 0
-14 -189 0
-14 -224 0
-14 -259 0
-14 -294 0
-14 -329 0
-14 -364 0
-14 -399 0
-14 -434 0
-14 -469 0
-14 -504 0
-14 -539 0
-14 -574 0
-14 -609 0
-14 -644 0
-14 -679 0
-14 -714 0
-14 -749 0
-14 -784 0
-14 -819 0
-14 -854 0
-14 -889 0
-14 -924 0
-14 -959 0
-14 -994 0
-14 -1029 0
-14 -1064 0
-14 -1099 0
-14 -1134 0
-14 -1169 0
-14 -1204 0
-14 -1239 0
-49 -84 0
-49 -119 0
-49 -154 0
-49 -189 0
-49 -224 0
-49 -259 0
-49 -294 0
-49 -329 0
-49 -364 0
-49 -399 0
-49 -434 0
-49 -469 0
-49 -504 0
-49 -539 0
-49 -574 0
-49 -609 0
-49 -644 0
-49 -679 0
-49 -714 0
-49 -749 0
-49 -784 0
-49 -819 0
-49 -854 0
-49 -889 0
-49 -924 0
-49 -959 0
-49 -994 0
-49 -1029 0
-49 -1064 0
-49 -1099 0
-49 -1134 0
-49 -1169 0
-49 -1204 0
-49 -1239 0
-84 -119 0
-84 -154 0
-84 -189 0
-84 -224 0
-84 -259 0
-84 -294 0
-84 -329 0
-84 -364 0
-84 -399 0
-84 -434 0
-84 -469 0
-84 -504 0
-84 -539 0
-84 -574 0
-84 -609 0
-84 -644 0
-84 -679 0
-84 -714 0
-84 -749 0
-84 -784 0
-84 -819 0
-84 -854 0
-84 -889 0
-84 -924 0
-84 -959 0
-84 -994 0
-84 -1029 0
-84 -1064 0
-84 -1099 0
-84 -1134 0
-84 -1169 0
-84 -1204 0
-84 -1239 0
-119 -154 0
-119 -189 0
-119 -224 0
-119 -259 0
-119 -294 0
-119 -329 0
-119 -364 0
-119 -399 0
-119 -434 0
-119 -469 0
-119 -504 0
-119 -539 0
-119 -574 0
-119 -609 0
-119 -644 0
-119 -679 0
-119 -714 0
-119 -749 0
-119 -784 0
-119 -819 0
-119 -854 0
-119 -889 0
-119 -924 0
-119 -959 0
-119 -994 0
-119 -1029 0
-119 -1064 0
-119 -1099 0
-119 -1134 0
-119 -1169 0
-119 -1204 0
-119 -1239 0
-154 -189 0
-154 -224 0
-154 -259 0
-154 -294 0
-154 -329 0
-154 -364 0
-154 -399 0
-154 -434 0
-154 -469 0
-154 -504 0
-154 -539 0
-154 -574 0
-154 -609 0
-154 -644 0
-154 -679 0
-154 -714 0
-154 -749 0
-154 -784 0
-154 -819 0
-154 -854 0
-154 -889 0
-154 -924 0
-154 -959 0
-154 -994 0
-154 -1029 0
-154 -1064 0
-154 -1099 0
-154 -1134 0
-154 -1169 0
-154 -1204 0
-154 -1239 0
-189 -224 0
-189 -259 0
-189 -294 0
-189 -329 0
-189 -364 0
-189 -399 0
-189 -434 0
-189 -469 0
-189 -504 0
-189 -539 0
-189 -574 0
-189 -609 0
-189 -644 0
-189 -679 0
-189 -714 0
-189 -749 0
-189 -784 0
-189 -819 0
-189 -854 0
-189 -889 0
-189 -924 0
-189 -959 0
-189 -994 0
-189 -1029 0
-189 -1064 0
-189 -1099 0
-189 -1134 0
-189 -1169 0
-189 -1204 0
-189 -1239 0
-224 -259 0
-224 -294 0
-224 -329 0
-224 -364 0
-224 -399 0
-224 -434 0
-224 -469 0
-224 -504 0
-224 -539 0
-224 -574 0
-224 -609 0
-224 -644 0
-224 -679 0
-224 -714 0
-224 -749 0
-224 -784 0
-224 -819 0
-224 -854 0
-224 -889 0
-224 -924 0
-224 -959 0
-224 -994 0
-224 -1029 0
-224 -1064 0
-224 -1099 0
-224 -1134 0
-224 -1169 0
-224 -1204 0
-224 -1239 0
-259 -294 0
-259 -329 0
-259 -364 0
-259 -399 0
-259 -434 0
-259 -469 0
-259 -504 0
-259 -539 0
-259 -574 0
-259 -609 0
-259 -644 0
-259 -679 0
-259 -714 0
-259 -749 0
-259 -784 0
-259 -819 0
-259 -854 0
-259 -889 0
-259 -924 0
-259 -959 0
-259 -994 0
-259 -1029 0
-259 -1064 0
-259 -1099 0
-259 -1134 0
-259 -1169 0
-259 -1204 0
-259 -1239 0
-294 -329 0
-294 -364 0
-294 -399 0
-294 -434 0
-294 -469 0
-294 -504 0
-294 -539 0
-294 -574 0
-294 -609 0
-294 -644 0
-294 -679 0
-294 -714 0
-294 -749 0
-294 -784 0
-294 -819 0
-294 -854 0
-294 -889 0
-294 -924 0
-294 -959 0
-294 -994 0
-294 -1029 0
-294 -1064 0
-294 -1099 0
-294 -1134 0
-294 -1169 0
-294 -1204 0
-294 -1239 0
-329 -364 0
-329 -399 0
-329 -434 0
-329 -469 0
-329 -504 0
-329 -539 0
-329 -574 0
-329 -609 0
-329 -644 0
-329 -679 0
-329 -714 0
-329 -749 0
-329 -784 0
-329 -819 0
-329 -854 0
-329 -889 0
-329 -924 0
-329 -959 0
-329 -994 0
-329 -1029 0
-329 -1064 0
-329 -1099 0
-329 -1134 0
-329 -1169 0
-329 -1204 0
-329 -1239 0
-364 -399 0
-364 -434 0
-364 -469 0
-364 -504 0
-364 -539 0
-364 -574 0
-364 -609 0
-364 -644 0
-364 -679 0
-364 -714 0
-364 -749 0
-364 -784 0
-364 -819 0
-364 -854 0
-364 -889 0
-364 -924 0
-364 -959 0
-364 -994 0
-364 -1029 0
-364 -1064 0
-364 -1099 0
-364 -1134 0
-364 -1169 0
-364 -1204 0
-364 -1239 0
-399 -434 0
-399 -469 0
-399 -504 0
-399 -539 0
-399 -574 0
-399 -609 0
-399 -644 0
-399 -679 0
-399 -714 0
-399 -749 0
-399 -784 0
-399 -819 0
-399 -854 0
-399 -889 0
-399 -924 0
-399 -959 0
-399 -994 0
-399 -1029 0
-399 -1064 0
-399 -1099 0
-399 -1134 0
-399 -1169 0
-399 -1204 0
-399 -1239 0
-434 -469 0
-434 -504 0
-434 -539 0
-434 -574 0
-434 -609 0
-434 -644 0
-434 -679 0
-434 -714 0
-434 -749 0
-434 -784 0
-434 -819 0
-434 -854 0
-434 -889 0
-434 -924 0
-434 -959 0
-434 -994 0
-434 -1029 0
-434 -1064 0
-434 -1099 0
-434 -1134 0
-434 -1169 0
-434 -1204 0
-434 -1239 0
-469 -504 0
-469 -539 0
-469 -574 0
-469 -609 0
-469 -644 0
-469 -679 0
-469 -714 0
-469 -749 0
-469 -784 0
-469 -819 0
-469 -854 0
-469 -889 0
-469 -924 0
-469 -959 0
-469 -994 0
-469 -1029 0
-469 -1064 0
-469 -1099 0
-469 -1134 0
-469 -1169 0
-469 -1204 0
-469 -1239 0
-504 -539 0
-504 -574 0
-504 -609 0
-504 -644 0
-504 -679 0
-504 -714 0
-504 -749 0
-504 -784 0
-504 -819 0
-504 -854 0
-504 -889 0
-504 -924 0
-504 -959 0
-504 -994 0
-504 -1029 0
-504 -1064 0
-504 -1099 0
-504 -1134 0
-504 -1169 0
-504 -1204 0
-504 -1239 0
-539 -574 0
-539 -609 0
-539 -644 0
-539 -679 0
-539 -714 0
-539 -749 0
-539 -784 0
-539 -819 0
-539 -854 0
-539 -889 0
-539 -924 0
-539 -959 0
-539 -994 0
-539 -1029 0
-539 -1064 0
-539 -1099 0
-539 -1134 0
-539 -1169 0
-539 -1204 0
-539 -1239 0
-574 -609 0
-574 -644 0
-574 -679 0
-574 -714 0
-574 -749 0
-574 -784 0
-574 -819 0
-574 -854 0
-574 -889 0
-574 -924 0
-574 -959 0
-574 -994 0
-574 -1029 0
-574 -1064 0
-574 -1099 0
-574 -1134 0
-574 -1169 0
-574 -1204 0
-574 -1239 0
-609 -644 0
-609 -679 0
-609 -714 0
-609 -749 0
-609 -784 0
-609 -819 0
-609 -854 0
-609 -889 0
-609 -924 0
-609 -959 0
-609 -994 0
-609 -1029 0
-609 -1064 0
-609 -1099 0
-609 -1134 0
-609 -1169 0
-609 -1204 0
-609 -1239 0
-644 -679 0
-644 -714 0
-644 -749 0
-644 -784 0
-644 -819 0
-644 -854 0
-644 -889 0
-644 -924 0
-644 -959 0
-644 -994 0
-644 -1029 0
-644 -1064 0
-644 -1099 0
-644 -1134 0
-644 -1169 0
-644 -1204 0
-644 -1239 0
-679 -714 0
-679 -749 0
-679 -784 0
-679 -819 0
-679 -854 0
-679 -889 0
-679 -924 0
-679 -959 0
-679 -994 0
-679 -1029 0
-679 -1064 0
-679 -1099 0
-679 -1134 0
-679 -1169 0
-679 -1204 0
-679 -1239 0
-714 -749 0
-714 -784 0
-714 -819 0
-714 -854 0
-714 -889 0
-714 -924 0
-714 -959 0
-714 -994 0
-714 -1029 0
-714 -1064 0
-714 -1099 0
-714 -1134 0
-714 -1169 0
-714 -1204 0
-714 -1239 0
-749 -784 0
-749 -819 0
-749 -854 0
-749 -889 0
-749 -924 0
-749 -959 0
-749 -994 0
-749 -1029 0
-749 -1064 0
-749 -1099 0
-749 -1134 0
-749 -1169 0
-749 -1204 0
-749 -1239 0
-784 -819 0
-784 -854 0
-784 -889 0
-784 -924 0
-784 -959 0
-784 -994 0
-784 -1029 0
-784 -1064 0
-784 -1099 0
-784 -1134 0
-784 -1169 0
-784 -1204 0
-784 -1239 0
-819 -854 0
-819 -889 0
-819 -924 0
-819 -959 0
-819 -994 0
-819 -1029 0
-819 -1064 0
-819 -1099 0
-819 -1134 0
-819 -1169 0
-819 -1204 0
-819 -1239 0
-854 -889 0
-854 -924 0
-854 -959 0
-854 -994 0
-854 -1029 0
-854 -1064 0
-854 -1099 0
-854 -1134 0
-854 -1169 0
-854 -1204 0
-854 -1239 0
-889 -924 0
-889 -959 0
-889 -994 0
-889 -1029 0
-889 -1064 0
-889 -1099 0
-889 -1134 0
-889 -1169 0
-889 -1204 0
-889 -1239 0
-924 -959 0
-924 -994 0
-924 -1029 0
-924 -1064 0
-924 -1099 0
-924 -1134 0
-924 -1169 0
-924 -1204 0
-924 -1239 0
-959 -994 0
-959 -1029 0
-959 -1064 0
-959 -1099 0
-959 -1134 0
-959 -1169 0
-959 -1204 0
-959 -1239 0
-994 -1029 0
-994 -1064 0
-994 -1099 0
-994 -1134 0
-994 -1169 0
-994 -1204 0
-994 -1239 0
-1029 -1064 0
-1029 -1099 0
-1029 -1134 0
-1029 -1169 0
-1029 -1204 0
-1029 -1239 0
-1064 -1099 0
-1064 -1134 0
-1064 -1169 0
-1064 -1204 0
-1064 -1239 0
-1099 -1134 0
-1099 -1169 0
-1099 -1204 0
-1099 -1239 0
-1134 -1169 0
-1134 -1204 0
-1134 -1239 0
-1169 -1204 0
-1169 -1239 0
-1204 -1239 0
-15 -50 0
-15 -85 0
-15 -120 0
-15 -155 0
-15 -190 0
-15 -225 0
-15 -260 0
-15 -295 0
-15 -330 0
-15 -365 0
-15 -400 0
-15 -435 0
-15 -470 0
-15 -505 0
-15 -540 0
-15 -575 0
-15 -610 0
-15 -645 0
-15 -680 0
-15 -715 0
-15 -750 0
-15 -785 0
-15 -820 0
-15 -855 0
-15 -890 0
-15 -925 0
-15 -960 0
-15 -995 0
-15 -1030 0
-15 -1065 0
-15 -1100 0
-15 -1135 0
-15 -1170 0
-15 -1205 0
-15 -1240 0
-50 -85 0
-50 -120 0
-50 -155 0
-50 -190 0
-50 -225 0
-50 -260 0
-50 -295 0
-50 -330 0
-50 -365 0
-50 -400 0
-50 -435 0
-50 -470 0
-50 -505 0
-50 -540 0
-50 -575 0
-50 -610 0
-50 -645 0
-50 -680 0
-50 -715 0
-50 -750 0
-50 -785 0
-50 -820 0
-50 -855 0
-50 -890 0
-50 -925 0
-50 -960 0
-50 -995 0
-50 -1030 0
-50 -1065 0
-50 -1100 0
-50 -1135 0
-50 -1170 0
-50 -1205 0
-50 -1240 0
-85 -120 0
-85 -155 0
-85 -190 0
-85 -225 0
-85 -260 0
-85 -295 0
-85 -330 0
-85 -365 0
-85 -400 0
-85 -435 0
-85 -470 0
-85 -505 0
-85 -540 0
-85 -575 0
-85 -610 0
-85 -645 0
-85 -680 0
-85 -715 0
-85 -750 0
-85 -785 0
-85 -820 0
-85 -855 0
-85 -890 0
-85 -925 0
-85 -960 0
-85 -995 0
-85 -1030 0
-85 -1065 0
-85 -1100 0
-85 -1135 0
-85 -1170 0
-85 -1205 0
-85 -1240 0
-120 -155 0
-120 -190 0
-120 -225 0
-120 -260 0
-120 -295 0
-120 -330 0
-120 -365 0
-120 -400 0
-120 -435 0
-120 -470 0
-120 -505 0
-120 -540 0
-120 -575 0
-120 -610 0
-120 -645 0
-120 -680 0
-120 -715 0
-120 -750 0
-120 -785 0
-120 -820 0
-120 -855 0
-120 -890 0
-120 -925 0
-120 -960 0
-120 -995 0
-120 -1030 0
-120 -1065 0
-120 -1100 0
-120 -1135 0
-120 -1170 0
-120 -1205 0
-120 -1240 0
-155 -190 0
-155 -225 0
-155 -260 0
-155 -295 0
-155 -330 0
-155 -365 0
-155 -400 0
-155 -435 0
-155 -470 0
-155 -505 0
-155 -540 0
-155 -575 0
-155 -610 0
-155 -645 0
-155 -680 0
-155 -715 0
-155 -750 0
-155 -785 0
-155 -820 0
-155 -855 0
-155 -890 0
-155 -925 0
-155 -960 0
-155 -995 0
-155 -1030 0
-155 -1065 0
-155 -1100 0
-155 -1135 0
-155 -1170 0
-155 -1205 0
-155 -1240 0
-190 -225 0
-190 -260 0
-190 -295 0
-190 -330 0
-190 -365 0
-190 -400 0
-190 -435 0
-190 -470 0
-190 -505 0
-190 -540 0
-190 -575 0
-190 -610 0
-190 -645 0
-190 -680 0
-190 -715 0
-190 -750 0
-190 -785 0
-190 -820 0
-190 -855 0
-190 -890 0
-190 -925 0
-190 -960 0
-190 -995 0
-190 -1030 0
-190 -1065 0
-190 -1100 0
-190 -1135 0
-190 -1170 0
-190 -1205 0
-190 -1240 0
-225 -260 0
-225 -295 0
-225 -330 0
-225 -365 0
-225 -400 0
-225 -435 0
-225 -470 0
-225 -505 0
-225 -540 0
-225 -575 0
-225 -610 0
-225 -645 0
-225 -680 0
-225 -715 0
-225 -750 0
-225 -785 0
-225 -820 0
-225 -855 0
-225 -890 0
-225 -925 0
-225 -960 0
-225 -995 0
-225 -1030 0
-225 -1065 0
-225 -1100 0
-225 -1135 0
-225 -1170 0
-225 -1205 0
-225 -1240 0
-260 -295 0
-260 -330 0
-260 -365 0
-260 -400 0
-260 -435 0
-260 -470 0
-260 -505 0
-260 -540 0
-260 -575 0
-260 -610 0
-260 -645 0
-260 -680 0
-260 -715 0
-260 -750 0
-260 -785 0
-260 -820 0
-260 -855 0
-260 -890 0
-260 -925 0
-260 -960 0
-260 -995 0
-260 -1030 0
-260 -1065 0
-260 -1100 0
-260 -1135 0
-260 -1170 0
-260 -1205 0
-260 -1240 0
-295 -330 0
-295 -365 0
-295 -400 0
-295 -435 0
-295 -470 0
-295 -505 0
-295 -540 0
-295 -575 0
-295 -610 0
-295 -645 0
-295 -680 0
-295 -715 0
-295 -750 0
-295 -785 0
-295 -820 0
-295 -855 0
-295 -890 0
-295 -925 0
-295 -960 0
-295 -995 0
-295 -1030 0
-295 -1065 0
-295 -1100 0
-295 -1135 0
-295 -1170 0
-295 -1205 0
-295 -1240 0
-330 -365 0
-330 -400 0
-330 -435 0
-330 -470 0
-330 -505 0
-330 -540 0
-330 -575 0
-330 -610 0
-330 -645 0
-330 -680 0
-330 -715 0
-330 -750 0
-330 -785 0
-330 -820 0
-330 -855 0
-330 -890 0
-330 -925 0
-330 -960 0
-330 -995 0
-330 -1030 0
-330 -1065 0
-330 -1100 0
-330 -1135 0
-330 -1170 0
-330 -1205 0
-330 -1240 0
-365 -400 0
-365 -435 0
-365 -470 0
-365 -505 0
-365 -540 0
-365 -575 0
-365 -610 0
-365 -645 0
-365 -680 0
-365 -715 0
-365 -750 0
-365 -785 0
-365 -820 0
-365 -855 0
-365 -890 0
-365 -925 0
-365 -960 0
-365 -995 0
-365 -1030 0
-365 -1065 0
-365 -1100 0
-365 -1135 0
-365 -1170 0
-365 -1205 0
-365 -1240 0
-400 -435 0
-400 -470 0
-400 -505 0
-400 -540 0
-400 -575 0
-400 -610 0
-400 -645 0
-400 -680 0
-400 -715 0
-400 -750 0
-400 -785 0
-400 -820 0
-400 -855 0
-400 -890 0
-400 -925 0
-400 -960 0
-400 -995 0
-400 -1030 0
-400 -1065 0
-400 -1100 0
-400 -1135 0
-400 -1170 0
-400 -1205 0
-400 -1240 0
-435 -470 0
-435 -505 0
-435 -540 0
-435 -575 0
-435 -610 0
-435 -645 0
-435 -680 0
-435 -715 0
-435 -750 0
-435 -785 0
-435 -820 0
-435 -855 0
-435 -890 0
-435 -925 0
-435 -960 0
-435 -995 0
-435 -1030 0
-435 -1065 0
-435 -1100 0
-435 -1135 0
-435 -1170 0
-435 -1205 0
-435 -1240 0
-470 -505 0
-470 -540 0
-470 -575 0
-470 -610 0
-470 -645 0
-470 -680 0
-470 -715 0
-470 -750 0
-470 -785 0
-470 -820 0
-470 -855 0
-470 -890 0
-470 -925 0
-470 -960 0
-470 -995 0
-470 -1030 0
-470 -1065 0
-470 -1100 0
-470 -1135 0
-470 -1170 0
-470 -1205 0
-470 -1240 0
-505 -540 0
-505 -575 0
-505 -610 0
-505 -645 0
-505 -680 0
-505 -715 0
-505 -750 0
-505 -785 0
-505 -820 0
-505 -855 0
-505 -890 0
-505 -925 0
-505 -960 0
-505 -995 0
-505 -1030 0
-505 -1065 0
-505 -1100 0
-505 -1135 0
-505 -1170 0
-505 -1205 0
-505 -1240 0
-540 -575 0
-540 -610 0
-540 -645 0
-540 -680 0
-540 -715 0
-540 -750 0
-540 -785 0
-540 -820 0
-540 -855 0
-540 -890 0
-540 -925 0
-540 -960 0
-540 -995 0
-540 -1030 0
-540 -1065 0
-540 -1100 0
-540 -1135 0
-540 -1170 0
-540 -1205 0
-540 -1240 0
-575 -610 0
-575 -645 0
-575 -680 0
-575 -715 0
-575 -750 0
-575 -785 0
-575 -820 0
-575 -855 0
-575 -890 0
-575 -925 0
-575 -960 0
-575 -995 0
-575 -1030 0
-575 -1065 0
-575 -1100 0
-575 -1135 0
-575 -1170 0
-575 -1205 0
-575 -1240 0
-610 -645 0
-610 -680 0
-610 -715 0
-610 -750 0
-610 -785 0
-610 -820 0
-610 -855 0
-610 -890 0
-610 -925 0
-610 -960 0
-610 -995 0
-610 -1030 0
-610 -1065 0
-610 -1100 0
-610 -1135 0
-610 -1170 0
-610 -1205 0
-610 -1240 0
-645 -680 0
-645 -715 0
-645 -750 0
-645 -785 0
-645 -820 0
-645 -855 0
-645 -890 0
-645 -925 0
-645 -960 0
-645 -995 0
-645 -1030 0
-645 -1065 0
-645 -1100 0
-645 -1135 0
-645 -1170 0
-645 -1205 0
-645 -1240 0
-680 -715 0
-680 -750 0
-680 -785 0
-680 -820 0
-680 -855 0
-680 -890 0
-680 -925 0
-680 -960 0
-680 -995 0
-680 -1030 0
-680 -1065 0
-680 -1100 0
-680 -1135 0
-680 -1170 0
-680 -1205 0
-680 -1240 0
-715 -750 0
-715 -785 0
-715 -820 0
-715 -855 0
-715 -890 0
-715 -925 0
-715 -960 0
-715 -995 0
-715 -1030 0
-715 -1065 0
-715 -1100 0
-715 -1135 0
-715 -1170 0
-715 -1205 0
-715 -1240 0
-750 -785 0
-750 -820 0
-750 -855 0
-750 -890 0
-750 -925 0
-750 -960 0
-750 -995 0
-750 -1030 0
-750 -1065 0
-750 -1100 0
-750 -1135 0
-750 -1170 0
-750 -1205 0
-750 -1240 0
-785 -820 0
-785 -855 0
-785 -890 0
-785 -925 0
-785 -960 0
-785 -995 0
-785 -1030 0
-785 -1065 0
-785 -1100 0
-785 -1135 0
-785 -1170 0
-785 -1205 0
-785 -1240 0
-820 -855 0
-820 -890 0
-820 -925 0
-820 -960 0
-820 -995 0
-820 -1030 0
-820 -1065 0
-820 -1100 0
-820 -1135 0
-820 -1170 0
-820 -1205 0
-820 -1240 0
-855 -890 0
-855 -925 0
-855 -960 0
-855 -995 0
-855 -1030 0
-855 -1065 0
-855 -1100 0
-855 -1135 0
-855 -1170 0
-855 -1205 0
-855 -1240 0
-890 -925 0
-890 -960 0
-890 -995 0
-890 -1030 0
-890 -1065 0
-890 -1100 0
-890 -1135 0
-890 -1170 0
-890 -1205 0
-890 -1240 0
-925 -960 0
-925 -995 0
-925 -1030 0
-925 -1065 0
-925 -1100 0
-925 -1135 0
-925 -1170 0
-925 -1205 0
-925 -1240 0
-960 -995 0
-960 -1030 0
-960 -1065 0
-960 -1100 0
-960 -1135 0
-960 -1170 0
-960 -1205 0
-960 -1240 0
-995 -1030 0
-995 -1065 0
-995 -1100 0
-995 -1135 0
-995 -1170 0
-995 -1205 0
-995 -1240 0
-1030 -1065 0
-1030 -1100 0
-1030 -1135 0
-1030 -1170 0
-1030 -1205 0
-1030 -1240 0
-1065 -1100 0
-1065 -1135 0
-1065 -1170 0
-1065 -1205 0
-1065 -1240 0
-1100 -1135 0
-1100 -1170 0
-1100 -1205 0
-1100 -1240 0
-1135 -1170 0
-1135 -1205 0
-1135 -1240 0
-1170 -1205 0
-1170 -1240 0
-1205 -1240 0
-16 -51 0
-16 -86 0
-16 -121 0
-16 -156 0
-16 -191 0
-16 -226 0
-16 -261 0
-16 -296 0
-16 -331 0
-16 -366 0
-16 -401 0
-16 -436 0
-16 -471 0
-16 -506 0
-16 -541 0
-16 -576 0
-16 -611 0
-16 -646 0
-16 -681 0
-16 -716 0
-16 -751 0
-16 -786 0
-16 -821 0
-16 -856 0
-16 -891 0
-16 -926 0
-16 -961 0
-16 -996 0
-16 -1031 0
-16 -1066 0
-16 -1101 0
-16 -1136 0
-16 -1171 0
-16 -1206 0
-16 -1241 0
-51 -86 0
-51 -121 0
-51 -156 0
-51 -191 0
-51 -226 0
-51 -261 0
-51 -296 0
-51 -331 0
-51 -366 0
-51 -401 0
-51 -436 0
-51 -471 0
-51 -506 0
-51 -541 0
-51 -576 0
-51 -611 0
-51 -646 0
-51 -681 0
-51 -716 0
-51 -751 0
-51 -786 0
-51 -821 0
-51 -856 0
-51 -891 0
-51 -926 0
-51 -961 0
-51 -996 0
-51 -1031 0
-51 -1066 0
-51 -1101 0
-51 -1136 0
-51 -1171 0
-51 -1206 0
-51 -1241 0
-86 -121 0
-86 -156 0
-86 -191 0
-86 -226 0
-86 -261 0
-86 -296 0
-86 -331 0
-86 -366 0
-86 -401 0
-86 -436 0
-86 -471 0
-86 -506 0
-86 -541 0
-86 -576 0
-86 -611 0
-86 -646 0
-86 -681 0
-86 -716 0
-86 -751 0
-86 -786 0
-86 -821 0
-86 -856 0
-86 -891 0
-86 -926 0
-86 -961 0
-86 -996 0
-86 -1031 0
-86 -1066 0
-86 -1101 0
-86 -1136 0
-86 -1171 0
-86 -1206 0
-86 -1241 0
-121 -156 0
-121 -191 0
-121 -226 0
-121 -261 0
-121 -296 0
-121 -331 0
-121 -366 0
-121 -401 0
-121 -436 0
-121 -471 0
-121 -506 0
-121 -541 0
-121 -576 0
-121 -611 0
-121 -646 0
-121 -681 0
-121 -716 0
-121 -751 0
-121 -786 0
-121 -821 0
-121 -856 0
-121 -891 0
-121 -926 0
-121 -961 0
-121 -996 0
-121 -1031 0
-121 -1066 0
-121 -1101 0
-121 -1136 0
-121 -1171 0
-121 -1206 0
-121 -1241 0
-156 -191 0
-156 -226 0
-156 -261 0
-156 -296 0
-156 -331 0
-156 -366 0
-156 -401 0
-156 -436 0
-156 -471 0
-156 -506 0
-156 -541 0
-156 -576 0
-156 -611 0
-156 -646 0
-156 -681 0
-156 -716 0
-156 -751 0
-156 -786 0
-156 -821 0
-156 -856 0
-156 -891 0
-156 -926 0
-156 -961 0
-156 -996 0
-156 -1031 0
-156 -1066 0
-156 -1101 0
-156 -1136 0
-156 -1171 0
-156 -1206 0
-156 -1241 0
-191 -226 0
-191 -261 0
-191 -296 0
-191 -331 0
-191 -366 0
-191 -401 0
-191 -436 0
-191 -471 0
-191 -506 0
-191 -541 0
-191 -576 0
-191 -611 0
-191 -646 0
-191 -681 0
-191 -716 0
-191 -751 0
-191 -786 0
-191 -821 0
-191 -856 0
-191 -891 0
-191 -926 0
-191 -961 0
-191 -996 0
-191 -1031 0
-191 -1066 0
-191 -1101 0
-191 -1136 0
-191 -1171 0
-191 -1206 0
-191 -1241 0
-226 -261 0
-226 -296 0
-226 -331 0
-226 -366 0
-226 -401 0
-226 -436 0
-226 -471 0
-226 -506 0
-226 -541 0
-226 -576 0
-226 -611 0
-226 -646 0
-226 -681 0
-226 -716 0
-226 -751 0
-226 -786 0
-226 -821 0
-226 -856 0
-226 -891 0
-226 -926 0
-226 -961 0
-226 -996 0
-226 -1031 0
-226 -1066 0
-226 -1101 0
-226 -1136 0
-226 -1171 0
-226 -1206 0
-226 -1241 0
-261 -296 0
-261 -331 0
-261 -366 0
-261 -401 0
-261 -436 0
-261 -471 0
-261 -506 0
-261 -541 0
-261 -576 0
-261 -611 0
-261 -646 0
-261 -681 0
-261 -716 0
-261 -751 0
-261 -786 0
-261 -821 0
-261 -856 0
-261 -891 0
-261 -926 0
-261 -961 0
-261 -996 0
-261 -1031 0
-261 -1066 0
-261 -1101 0
-261 -1136 0
-261 -1171 0
-261 -1206 0
-261 -1241 0
-296 -331 0
-296 -366 0
-296 -401 0
-296 -436 0
-296 -471 0
-296 -506 0
-296 -541 0
-296 -576 0
-296 -611 0
-296 -646 0
-296 -681 0
-296 -716 0
-296 -751 0
-296 -786 0
-296 -821 0
-296 -856 0
-296 -891 0
-296 -926 0
-296 -961 0
-296 -996 0
-296 -1031 0
-296 -1066 0
-296 -1101 0
-296 -1136 0
-296 -1171 0
-296 -1206 0
-296 -1241 0
-331 -366 0
-331 -401 0
-331 -436 0
-331 -471 0
-331 -506 0
-331 -541 0
-331 -576 0
-331 -611 0
-331 -646 0
-331 -681 0
-331 -716 0
-331 -751 0
-331 -786 0
-331 -821 0
-331 -856 0
-331 -891 0
-331 -926 0
-331 -961 0
-331 -996 0
-331 -1031 0
-331 -1066 0
-331 -1101 0
-331 -1136 0
-331 -1171 0
-331 -1206 0
-331 -1241 0
-366 -401 0
-366 -436 0
-366 -471 0
-366 -506 0
-366 -541 0
-366 -576 0
-366 -611 0
-366 -646 0
-366 -681 0
-366 -716 0
-366 -751 0
-366 -786 0
-366 -821 0
-366 -856 0
-366 -891 0
-366 -926 0
-366 -961 0
-366 -996 0
-366 -1031 0
-366 -1066 0
-366 -1101 0
-366 -1136 0
-366 -1171 0
-366 -1206 0
-366 -1241 0
-401 -436 0
-401 -471 0
-401 -506 0
-401 -541 0
-401 -576 0
-401 -611 0
-401 -646 0
-401 -681 0
-401 -716 0
-401 -751 0
-401 -786 0
-401 -821 0
-401 -856 0
-401 -891 0
-401 -926 0
-401 -961 0
-401 -996 0
-401 -1031 0
-401 -1066 0
-401 -1101 0
-401 -1136 0
-401 -1171 0
-401 -1206 0
-401 -1241 0
-436 -471 0
-436 -506 0
-436 -541 0
-436 -576 0
-436 -611 0
-436 -646 0
-436 -681 0
-436 -716 0
-436 -751 0
-436 -786 0
-436 -821 0
-436 -856 0
-436 -891 0
-436 -926 0
-436 -961 0
-436 -996 0
-436 -1031 0
-436 -1066 0
-436 -1101 0
-436 -1136 0
-436 -1171 0
-436 -1206 0
-436 -1241 0
-471 -506 0
-471 -541 0
-471 -576 0
-471 -611 0
-471 -646 0
-471 -681 0
-471 -716 0
-471 -751 0
-471 -786 0
-471 -821 0
-471 -856 0
-471 -891 0
-471 -926 0
-471 -961 0
-471 -996 0
-471 -1031 0
-471 -1066 0
-471 -1101 0
-471 -1136 0
-471 -1171 0
-471 -1206 0
-471 -1241 0
-506 -541 0
-506 -576 0
-506 -611 0
-506 -646 0
-506 -681 0
-506 -716 0
-506 -751 0
-506 -786 0
-506 -821 0
-506 -856 0
-506 -891 0
-506 -926 0
-506 -961 0
-506 -996 0
-506 -1031 0
-506 -1066 0
-506 -1101 0
-506 -1136 0
-506 -1171 0
-506 -1206 0
-506 -1241 0
-541 -576 0
-541 -611 0
-541 -646 0
-541 -681 0
-541 -716 0
-541 -751 0
-541 -786 0
-541 -821 0
-541 -856 0
-541 -891 0
-541 -926 0
-541 -961 0
-541 -996 0
-541 -1031 0
-541 -1066 0
-541 -1101 0
-541 -1136 0
-541 -1171 0
-541 -1206 0
-541 -1241 0
-576 -611 0
-576 -646 0
-576 -681 0
-576 -716 0
-576 -751 0
-576 -786 0
-576 -821 0
-576 -856 0
-576 -891 0
-576 -926 0
-576 -961 0
-576 -996 0
-576 -1031 0
-576 -1066 0
-576 -1101 0
-576 -1136 0
-576 -1171 0
-576 -1206 0
-576 -1241 0
-611 -646 0
-611 -681 0
-611 -716 0
-611 -751 0
-611 -786 0
-611 -821 0
-611 -856 0
-611 -891 0
-611 -926 0
-611 -961 0
-611 -996 0
-611 -1031 0
-611 -1066 0
-611 -1101 0
-611 -1136 0
-611 -1171 0
-611 -1206 0
-611 -1241 0
-646 -681 0
-646 -716 0
-646 -751 0
-646 -786 0
-646 -821 0
-646 -856 0
-646 -891 0
-646 -926 0
-646 -961 0
-646 -996 0
-646 -1031 0
-646 -1066 0
-646 -1101 0
-646 -1136 0
-646 -1171 0
-646 -1206 0
-646 -1241 0
-681 -716 0
-681 -751 0
-681 -786 0
-681 -821 0
-681 -856 0
-681 -891 0
-681 -926 0
-681 -961 0
-681 -996 0
-681 -1031 0
-681 -1066 0
-681 -1101 0
-681 -1136 0
-681 -1171 0
-681 -1206 0
-681 -1241 0
-716 -751 0
-716 -786 0
-716 -821 0
-716 -856 0
-716 -891 0
-716 -926 0
-716 -961 0
-716 -996 0
-716 -1031 0
-716 -1066 0
-716 -1101 0
-716 -1136 0
-716 -1171 0
-716 -1206 0
-716 -1241 0
-751 -786 0
-751 -821 0
-751 -856 0
-751 -891 0
-751 -926 0
-751 -961 0
-751 -996 0
-751 -1031 0
-751 -1066 0
-751 -1101 0
-751 -1136 0
-751 -1171 0
-751 -1206 0
-751 -1241 0
-786 -821 0
-786 -856 0
-786 -891 0
-786 -926 0
-786 -961 0
-786 -996 0
-786 -1031 0
-786 -1066 0
-786 -1101 0
-786 -1136 0
-786 -1171 0
-786 -1206 0
-786 -1241 0
-821 -856 0
-821 -891 0
-821 -926 0
-821 -961 0
-821 -996 0
-821 -1031 0
-821 -1066 0
-821 -1101 0
-821 -1136 0
-821 -1171 0
-821 -1206 0
-821 -1241 0
-856 -891 0
-856 -926 0
-856 -961 0
-856 -996 0
-856 -1031 0
-856 -1066 0
-856 -1101 0
-856 -1136 0
-856 -1171 0
-856 -1206 0
-856 -1241 0
-891 -926 0
-891 -961 0
-891 -996 0
-891 -1031 0
-891 -1066 0
-891 -1101 0
-891 -1136 0
-891 -1171 0
-891 -1206 0
-891 -1241 0
-926 -961 0
-926 -996 0
-926 -1031 0
-926 -1066 0
-926 -1101 0
-926 -1136 0
-926 -1171 0
-926 -1206 0
-926 -1241 0
-961 -996 0
-961 -1031 0
-961 -1066 0
-961 -1101 0
-961 -1136 0
-961 -1171 0
-961 -1206 0
-961 -1241 0
-996 -1031 0
-996 -1066 0
-996 -1101 0
-996 -1136 0
-996 -1171 0
-996 -1206 0
-996 -1241 0
-1031 -1066 0
-1031 -1101 0
-1031 -1136 0
-1031 -1171 0
-1031 -1206 0
-1031 -1241 0
-1066 -1101 0
-1066 -1136 0
-1066 -1171 0
-1066 -1206 0
-1066 -1241 0
-1101 -1136 0
-1101 -1171 0
-1101 -1206 0
-1101 -1241 0
-1136 -1171 0
-1136 -1206 0
-1136 -1241 0
-1171 -1206 0
-1171 -1241 0
-1206 -1241 0
-17 -52 0
-17 -87 0
-17 -122 0
-17 -157 0
-17 -192 0
-17 -227 0
-17 -262 0
-17 -297 0
-17 -332 0
-17 -367 0
-17 -402 0
-17 -437 0
-17 -472 0
-17 -507 0
-17 -542 0
-17 -577 0
-17 -612 0
-17 -647 0
-17 -682 0
-17 -717 0
-17 -752 0
-17 -787 0
-17 -822 0
-17 -857 0
-17 -892 0
-17 -927 0
-17 -962 0
-17 -997 0
-17 -1032 0
-17 -1067 0
-17 -1102 0
-17 -1137 0
-17 -1172 0
-17 -1207 0
-17 -1242 0
-52 -87 0
-52 -122 0
-52 -157 0
-52 -192 0
-52 -227 0
-52 -262 0
-52 -297 0
-52 -332 0
-52 -367 0
-52 -402 0
-52 -437 0
-52 -472 0
-52 -507 0
-52 -542 0
-52 -577 0
-52 -612 0
-52 -647 0
-52 -682 0
-52 -717 0
-52 -752 0
-52 -787 0
-52 -822 0
-52 -857 0
-52 -892 0
-52 -927 0
-52 -962 0
-52 -997 0
-52 -1032 0
-52 -1067 0
-52 -1102 0
-52 -1137 0
-52 -1172 0
-52 -1207 0
-52 -1242 0
-87 -122 0
-87 -157 0
-87 -192 0
-87 -227 0
-87 -262 0
-87 -297 0
-87 -332 0
-87 -367 0
-87 -402 0
-87 -437 0
-87 -472 0
-87 -507 0
-87 -542 0
-87 -577 0
-87 -612 0
-87 -647 0
-87 -682 0
-87 -717 0
-87 -752 0
-87 -787 0
-87 -822 0
-87 -857 0
-87 -892 0
-87 -927 0
-87 -962 0
-87 -997 0
-87 -1032 0
-87 -1067 0
-87 -1102 0
-87 -1137 0
-87 -1172 0
-87 -1207 0
-87 -1242 0
-122 -157 0
-122 -192 0
-122 -227 0
-122 -262 0
-122 -297 0
-122 -332 0
-122 -367 0
-122 -402 0
-122 -437 0
-122 -472 0
-122 -507 0
-122 -542 0
-122 -577 0
-122 -612 0
-122 -647 0
-122 -682 0
-122 -717 0
-122 -752 0
-122 -787 0
-122 -822 0
-122 -857 0
-122 -892 0
-122 -927 0
-122 -962 0
-122 -997 0
-122 -1032 0
-122 -1067 0
-122 -1102 0
-122 -1137 0
-122 -1172 0
-122 -1207 0
-122 -1242 0
-157 -192 0
-157 -227 0
-157 -262 0
-157 -297 0
-157 -332 0
-157 -367 0
-157 -402 0
-157 -437 0
-157 -472 0
-157 -507 0
-157 -542 0
-157 -577 0
-157 -612 0
-157 -647 0
-157 -682 0
-157 -717 0
-157 -752 0
-157 -787 0
-157 -822 0
-157 -857 0
-157 -892 0
-157 -927 0
-157 -962 0
-157 -997 0
-157 -1032 0
-157 -1067 0
-157 -1102 0
-157 -1137 0
-157 -1172 0
-157 -1207 0
-157 -1242 0
-192 -227 0
-192 -262 0
-192 -297 0
-192 -332 0
-192 -367 0
-192 -402 0
-192 -437 0
-192 -472 0
-192 -507 0
-192 -542 0
-192 -577 0
-192 -612 0
-192 -647 0
-192 -682 0
-192 -717 0
-192 -752 0
-192 -787 0
-192 -822 0
-192 -857 0
-192 -892 0
-192 -927 0
-192 -962 0
-192 -997 0
-192 -1032 0
-192 -1067 0
-192 -1102 0
-192 -1137 0
-192 -1172 0
-192 -1207 0
-192 -1242 0
-227 -262 0
-227 -297 0
-227 -332 0
-227 -367 0
-227 -402 0
-227 -437 0
-227 -472 0
-227 -507 0
-227 -542 0
-227 -577 0
-227 -612 0
-227 -647 0
-227 -682 0
-227 -717 0
-227 -752 0
-227 -787 0
-227 -822 0
-227 -857 0
-227 -892 0
-227 -927 0
-227 -962 0
-227 -997 0
-227 -1032 0
-227 -1067 0
-227 -1102 0
-227 -1137 0
-227 -1172 0
-227 -1207 0
-227 -1242 0
-262 -297 0
-262 -332 0
-262 -367 0
-262 -402 0
-262 -437 0
-262 -472 0
-262 -507 0
-262 -542 0
-262 -577 0
-262 -612 0
-262 -647 0
-262 -682 0
-262 -717 0
-262 -752 0
-262 -787 0
-262 -822 0
-262 -857 0
-262 -892 0
-262 -927 0
-262 -962 0
-262 -997 0
-262 -1032 0
-262 -1067 0
-262 -1102 0
-262 -1137 0
-262 -1172 0
-262 -1207 0
-262 -1242 0
-297 -332 0
-297 -367 0
-297 -402 0
-297 -437 0
-297 -472 0
-297 -507 0
-297 -542 0
-297 -577 0
-297 -612 0
-297 -647 0
-297 -682 0
-297 -717 0
-297 -752 0
-297 -787 0
-297 -822 0
-297 -857 0
-297 -892 0
-297 -927 0
-297 -962 0
-297 -997 0
-297 -1032 0
-297 -1067 0
-297 -1102 0
-297 -1137 0
-297 -1172 0
-297 -1207 0
-297 -1242 0
-332 -367 0
-332 -402 0
-332 -437 0
-332 -472 0
-332 -507 0
-332 -542 0
-332 -577 0
-332 -612 0
-332 -647 0
-332 -682 0
-332 -717 0
-332 -752 0
-332 -787 0
-332 -822 0
-332 -857 0
-332 -892 0
-332 -927 0
-332 -962 0
-332 -997 0
-332 -1032 0
-332 -1067 0
-332 -1102 0
-332 -1137 0
-332 -1172 0
-332 -1207 0
-332 -1242 0
-367 -402 0
-367 -437 0
-367 -472 0
-367 -507 0
-367 -542 0
-367 -577 0
-367 -612 0
-367 -647 0
-367 -682 0
-367 -717 0
-367 -752 0
-367 -787 0
-367 -822 0
-367 -857 0
-367 -892 0
-367 -927 0
-367 -962 0
-367 -997 0
-367 -1032 0
-367 -1067 0
-367 -1102 0
-367 -1137 0
-367 -1172 0
-367 -1207 0
-367 -1242 0
-402 -437 0
-402 -472 0
-402 -507 0
-402 -542 0
-402 -577 0
-402 -612 0
-402 -647 0
-402 -682 0
-402 -717 0
-402 -752 0
-402 -787 0
-402 -822 0
-402 -857 0
-402 -892 0
-402 -927 0
-402 -962 0
-402 -997 0
-402 -1032 0
-402 -1067 0
-402 -1102 0
-402 -1137 0
-402 -1172 0
-402 -1207 0
-402 -1242 0
-437 -472 0
-437 -507 0
-437 -542 0
-437 -577 0
-437 -612 0
-437 -647 0
-437 -682 0
-437 -717 0
-437 -752 0
-437 -787 0
-437 -822 0
-437 -857 0
-437 -892 0
-437 -927 0
-437 -962 0
-437 -997 0
-437 -1032 0
-437 -1067 0
-437 -1102 0
-437 -1137 0
-437 -1172 0
-437 -1207 0
-437 -1242 0
-472 -507 0
-472 -542 0
-472 -577 0
-472 -612 0
-472 -647 0
-472 -682 0
-472 -717 0
-472 -752 0
-472 -787 0
-472 -822 0
-472 -857 0
-472 -892 0
-472 -927 0
-472 -962 0
-472 -997 0
-472 -1032 0
-472 -1067 0
-472 -1102 0
-472 -1137 0
-472 -1172 0
-472 -1207 0
-472 -1242 0
-507 -542 0
-507 -577 0
-507 -612 0
-507 -647 0
-507 -682 0
-507 -717 0
-507 -752 0
-507 -787 0
-507 -822 0
-507 -857 0
-507 -892 0
-507 -927 0
-507 -962 0
-507 -997 0
-507 -1032 0
-507 -1067 0
-507 -1102 0
-507 -1137 0
-507 -1172 0
-507 -1207 0
-507 -1242 0
-542 -577 0
-542 -612 0
-542 -647 0
-542 -682 0
-542 -717 0
-542 -752 0
-542 -787 0
-542 -822 0
-542 -857 0
-542 -892 0
-542 -927 0
-542 -962 0
-542 -997 0
-542 -1032 0
-542 -1067 0
-542 -1102 0
-542 -1137 0
-542 -1172 0
-542 -1207 0
-542 -1242 0
-577 -612 0
-577 -647 0
-577 -682 0
-577 -717 0
-577 -752 0
-577 -787 0
-577 -822 0
-577 -857 0
-577 -892 0
-577 -927 0
-577 -962 0
-577 -997 0
-577 -1032 0
-577 -1067 0
-577 -1102 0
-577 -1137 0
-577 -1172 0
-577 -1207 0
-577 -1242 0
-612 -647 0
-612 -682 0
-612 -717 0
-612 -752 0
-612 -787 0
-612 -822 0
-612 -857 0
-612 -892 0
-612 -927 0
-612 -962 0
-612 -997 0
-612 -1032 0
-612 -1067 0
-612 -1102 0
-612 -1137 0
-612 -1172 0
-612 -1207 0
-612 -1242 0
-647 -682 0
-647 -717 0
-647 -752 0
-647 -787 0
-647 -822 0
-647 -857 0
-647 -892 0
-647 -927 0
-647 -962 0
-647 -997 0
-647 -1032 0
-647 -1067 0
-647 -1102 0
-647 -1137 0
-647 -1172 0
-647 -1207 0
-647 -1242 0
-682 -717 0
-682 -752 0
-682 -787 0
-682 -822 0
-682 -857 0
-682 -892 0
-682 -927 0
-682 -962 0
-682 -997 0
-682 -1032 0
-682 -1067 0
-682 -1102 0
-682 -1137 0
-682 -1172 0
-682 -1207 0
-682 -1242 0
-717 -752 0
-717 -787 0
-717 -822 0
-717 -857 0
-717 -892 0
-717 -927 0
-717 -962 0
-717 -997 0
-717 -1032 0
-717 -1067 0
-717 -1102 0
-717 -1137 0
-717 -1172 0
-717 -1207 0
-717 -1242 0
-752 -787 0
-752 -822 0
-752 -857 0
-752 -892 0
-752 -927 0
-752 -962 0
-752 -997 0
-752 -1032 0
-752 -1067 0
-752 -1102 0
-752 -1137 0
-752 -1172 0
-752 -1207 0
-752 -1242 0
-787 -822 0
-787 -857 0
-787 -892 0
-787 -927 0
-787 -962 0
-787 -997 0
-787 -1032 0
-787 -1067 0
-787 -1102 0
-787 -1137 0
-787 -1172 0
-787 -1207 0
-787 -1242 0
-822 -857 0
-822 -892 0
-822 -927 0
-822 -962 0
-822 -997 0
-822 -1032 0
-822 -1067 0
-822 -1102 0
-822 -1137 0
-822 -1172 0
-822 -1207 0
-822 -1242 0
-857 -892 0
-857 -927 0
-857 -962 0
-857 -997 0
-857 -1032 0
-857 -1067 0
-857 -1102 0
-857 -1137 0
-857 -1172 0
-857 -1207 0
-857 -1242 0
-892 -927 0
-892 -962 0
-892 -997 0
-892 -1032 0
-892 -1067 0
-892 -1102 0
-892 -1137 0
-892 -1172 0
-892 -1207 0
-892 -1242 0
-927 -962 0
-927 -997 0
-927 -1032 0
-927 -1067 0
-927 -1102 0
-927 -1137 0
-927 -1172 0
-927 -1207 0
-927 -1242 0
-962 -997 0
-962 -1032 0
-962 -1067 0
-962 -1102 0
-962 -1137 0
-962 -1172 0
-962 -1207 0
-962 -1242 0
-997 -1032 0
-997 -1067 0
-997 -1102 0
-997 -1137 0
-997 -1172 0
-997 -1207 0
-997 -1242 0
-1032 -1067 0
-1032 -1102 0
-1032 -1137 0
-1032 -1172 0
-1032 -1207 0
-1032 -1242 0
-1067 -1102 0
-1067 -1137 0
-1067 -1172 0
-1067 -1207 0
-1067 -1242 0
-1102 -1137 0
-1102 -1172 0
-1102 -1207 0
-1102 -1242 0
-1137 -1172 0
-1137 -1207 0
-1137 -1242 0
-1172 -1207 0
-1172 -1242 0
-1207 -1242 0
-18 -53 0
-18 -88 0
-18 -123 0
-18 -158 0
-18 -193 0
-18 -228 0
-18 -263 0
-18 -298 0
-18 -333 0
-18 -368 0
-18 -403 0
-18 -438 0
-18 -473 0
-18 -508 0
-18 -543 0
-18 -578 0
-18 -613 0
-18 -648 0
-18 -683 0
-18 -718 0
-18 -753 0
-18 -788 0
-18 -823 0
-18 -858 0
-18 -893 0
-18 -928 0
-18 -963 0
-18 -998 0
-18 -1033 0
-18 -1068 0
-18 -1103 0
-18 -1138 0
-18 -1173 0
-18 -1208 0
-18 -1243 0
-53 -88 0
-53 -123 0
-53 -158 0
-53 -193 0
-53 -228 0
-53 -263 0
-53 -298 0
-53 -333 0
-53 -368 0
-53 -403 0
-53 -438 0
-53 -473 0
-53 -508 0
-53 -543 0
-53 -578 0
-53 -613 0
-53 -648 0
-53 -683 0
-53 -718 0
-53 -753 0
-53 -788 0
-53 -823 0
-53 -858 0
-53 -893 0
-53 -928 0
-53 -963 0
-53 -998 0
-53 -1033 0
-53 -1068 0
-53 -1103 0
-53 -1138 0
-53 -1173 0
-53 -1208 0
-53 -1243 0
-88 -123 0
-88 -158 0
-88 -193 0
-88 -228 0
-88 -263 0
-88 -298 0
-88 -333 0
-88 -368 0
-88 -403 0
-88 -438 0
-88 -473 0
-88 -508 0
-88 -543 0
-88 -578 0
-88 -613 0
-88 -648 0
-88 -683 0
-88 -718 0
-88 -753 0
-88 -788 0
-88 -823 0
-88 -858 0
-88 -893 0
-88 -928 0
-88 -963 0
-88 -998 0
-88 -1033 0
-88 -1068 0
-88 -1103 0
-88 -1138 0
-88 -1173 0
-88 -1208 0
-88 -1243 0
-123 -158 0
-123 -193 0
-123 -228 0
-123 -263 0
-123 -298 0
-123 -333 0
-123 -368 0
-123 -403 0
-123 -438 0
-123 -473 0
-123 -508 0
-123 -543 0
-123 -578 0
-123 -613 0
-123 -648 0
-123 -683 0
-123 -718 0
-123 -753 0
-123 -788 0
-123 -823 0
-123 -858 0
-123 -893 0
-123 -928 0
-123 -963 0
-123 -998 0
-123 -1033 0
-123 -1068 0
-123 -1103 0
-123 -1138 0
-123 -1173 0
-123 -1208 0
-123 -1243 0
-158 -193 0
-158 -228 0
-158 -263 0
-158 -298 0
-158 -333 0
-158 -368 0
-158 -403 0
-158 -438 0
-158 -473 0
-158 -508 0
-158 -543 0
-158 -578 0
-158 -613 0
-158 -648 0
-158 -683 0
-158 -718 0
-158 -753 0
-158 -788 0
-158 -823 0
-158 -858 0
-158 -893 0
-158 -928 0
-158 -963 0
-158 -998 0
-158 -1033 0
-158 -1068 0
-158 -1103 0
-158 -1138 0
-158 -1173 0
-158 -1208 0
-158 -1243 0
-193 -228 0
-193 -263 0
-193 -298 0
-193 -333 0
-193 -368 0
-193 -403 0
-193 -438 0
-193 -473 0
-193 -508 0
-193 -543 0
-193 -578 0
-193 -613 0
-193 -648 0
-193 -683 0
-193 -718 0
-193 -753 0
-193 -788 0
-193 -823 0
-193 -858 0
-193 -893 0
-193 -928 0
-193 -963 0
-193 -998 0
-193 -1033 0
-193 -1068 0
-193 -1103 0
-193 -1138 0
-193 -1173 0
-193 -1208 0
-193 -1243 0
-228 -263 0
-228 -298 0
-228 -333 0
-228 -368 0
-228 -403 0
-228 -438 0
-228 -473 0
-228 -508 0
-228 -543 0
-228 -578 0
-228 -613 0
-228 -648 0
-228 -683 0
-228 -718 0
-228 -753 0
-228 -788 0
-228 -823 0
-228 -858 0
-228 -893 0
-228 -928 0
-228 -963 0
-228 -998 0
-228 -1033 0
-228 -1068 0
-228 -1103 0
-228 -1138 0
-228 -1173 0
-228 -1208 0
-228 -1243 0
-263 -298 0
-263 -333 0
-263 -368 0
-263 -403 0
-263 -438 0
-263 -473 0
-263 -508 0
-263 -543 0
-263 -578 0
-263 -613 0
-263 -648 0
-263 -683 0
-263 -718 0
-263 -753 0
-263 -788 0
-263 -823 0
-263 -858 0
-263 -893 0
-263 -928 0
-263 -963 0
-263 -998 0
-263 -1033 0
-263 -1068 0
-263 -1103 0
-263 -1138 0
-263 -1173 0
-263 -1208 0
-263 -1243 0
-298 -333 0
-298 -368 0
-298 -403 0
-298 -438 0
-298 -473 0
-298 -508 0
-298 -543 0
-298 -578 0
-298 -613 0
-298 -648 0
-298 -683 0
-298 -718 0
-298 -753 0
-298 -788 0
-298 -823 0
-298 -858 0
-298 -893 0
-298 -928 0
-298 -963 0
-298 -998 0
-298 -1033 0
-298 -1068 0
-298 -1103 0
-298 -1138 0
-298 -1173 0
-298 -1208 0
-298 -1243 0
-333 -368 0
-333 -403 0
-333 -438 0
-333 -473 0
-333 -508 0
-333 -543 0
-333 -578 0
-333 -613 0
-333 -648 0
-333 -683 0
-333 -718 0
-333 -753 0
-333 -788 0
-333 -823 0
-333 -858 0
-333 -893 0
-333 -928 0
-333 -963 0
-333 -998 0
-333 -1033 0
-333 -1068 0
-333 -1103 0
-333 -1138 0
-333 -1173 0
-333 -1208 0
-333 -1243 0
-368 -403 0
-368 -438 0
-368 -473 0
-368 -508 0
-368 -543 0
-368 -578 0
-368 -613 0
-368 -648 0
-368 -683 0
-368 -718 0
-368 -753 0
-368 -788 0
-368 -823 0
-368 -858 0
-368 -893 0
-368 -928 0
-368 -963 0
-368 -998 0
-368 -1033 0
-368 -1068 0
-368 -1103 0
-368 -1138 0
-368 -1173 0
-368 -1208 0
-368 -1243 0
-403 -438 0
-403 -473 0
-403 -508 0
-403 -543 0
-403 -578 0
-403 -613 0
-403 -648 0
-403 -683 0
-403 -718 0
-403 -753 0
-403 -788 0
-403 -823 0
-403 -858 0
-403 -893 0
-403 -928 0
-403 -963 0
-403 -998 0
-403 -1033 0
-403 -1068 0
-403 -1103 0
-403 -1138 0
-403 -1173 0
-403 -1208 0
-403 -1243 0
-438 -473 0
-438 -508 0
-438 -543 0
-438 -578 0
-438 -613 0
-438 -648 0
-438 -683 0
-438 -718 0
-438 -753 0
-438 -788 0
-438 -823 0
-438 -858 0
-438 -893 0
-438 -928 0
-438 -963 0
-438 -998 0
-438 -1033 0
-438 -1068 0
-438 -1103 0
-438 -1138 0
-438 -1173 0
-438 -1208 0
-438 -1243 0
-473 -508 0
-473 -543 0
-473 -578 0
-473 -613 0
-473 -648 0
-473 -683 0
-473 -718 0
-473 -753 0
-473 -788 0
-473 -823 0
-473 -858 0
-473 -893 0
-473 -928 0
-473 -963 0
-473 -998 0
-473 -1033 0
-473 -1068 0
-473 -1103 0
-473 -1138 0
-473 -1173 0
-473 -1208 0
-473 -1243 0
-508 -543 0
-508 -578 0
-508 -613 0
-508 -648 0
-508 -683 0
-508 -718 0
-508 -753 0
-508 -788 0
-508 -823 0
-508 -858 0
-508 -893 0
-508 -928 0
-508 -963 0
-508 -998 0
-508 -1033 0
-508 -1068 0
-508 -1103 0
-508 -1138 0
-508 -1173 0
-508 -1208 0
-508 -1243 0
-543 -578 0
-543 -613 0
-543 -648 0
-543 -683 0
-543 -718 0
-543 -753 0
-543 -788 0
-543 -823 0
-543 -858 0
-543 -893 0
-543 -928 0
-543 -963 0
-543 -998 0
-543 -1033 0
-543 -1068 0
-543 -1103 0
-543 -1138 0
-543 -1173 0
-543 -1208 0
-543 -1243 0
-578 -613 0
-578 -648 0
-578 -683 0
-578 -718 0
-578 -753 0
-578 -788 0
-578 -823 0
-578 -858 0
-578 -893 0
-578 -928 0
-578 -963 0
-578 -998 0
-578 -1033 0
-578 -1068 0
-578 -1103 0
-578 -1138 0
-578 -1173 0
-578 -1208 0
-578 -1243 0
-613 -648 0
-613 -683 0
-613 -718 0
-613 -753 0
-613 -788 0
-613 -823 0
-613 -858 0
-613 -893 0
-613 -928 0
-613 -963 0
-613 -998 0
-613 -1033 0
-613 -1068 0
-613 -1103 0
-613 -1138 0
-613 -1173 0
-613 -1208 0
-613 -1243 0
-648 -683 0
-648 -718 0
-648 -753 0
-648 -788 0
-648 -823 0
-648 -858 0
-648 -893 0
-648 -928 0
-648 -963 0
-648 -998 0
-648 -1033 0
-648 -1068 0
-648 -1103 0
-648 -1138 0
-648 -1173 0
-648 -1208 0
-648 -1243 0
-683 -718 0
-683 -753 0
-683 -788 0
-683 -823 0
-683 -858 0
-683 -893 0
-683 -928 0
-683 -963 0
-683 -998 0
-683 -1033 0
-683 -1068 0
-683 -1103 0
-683 -1138 0
-683 -1173 0
-683 -1208 0
-683 -1243 0
-718 -753 0
-718 -788 0
-718 -823 0
-718 -858 0
-718 -893 0
-718 -928 0
-718 -963 0
-718 -998 0
-718 -1033 0
-718 -1068 0
-718 -1103 0
-718 -1138 0
-718 -1173 0
-718 -1208 0
-718 -1243 0
-753 -788 0
-753 -823 0
-753 -858 0
-753 -893 0
-753 -928 0
-753 -963 0
-753 -998 0
-753 -1033 0
-753 -1068 0
-753 -1103 0
-753 -1138 0
-753 -1173 0
-753 -1208 0
-753 -1243 0
-788 -823 0
-788 -858 0
-788 -893 0
-788 -928 0
-788 -963 0
-788 -998 0
-788 -1033 0
-788 -1068 0
-788 -1103 0
-788 -1138 0
-788 -1173 0
-788 -1208 0
-788 -1243 0
-823 -858 0
-823 -893 0
-823 -928 0
-823 -963 0
-823 -998 0
-823 -1033 0
-823 -1068 0
-823 -1103 0
-823 -1138 0
-823 -1173 0
-823 -1208 0
-823 -1243 0
-858 -893 0
-858 -928 0
-858 -963 0
-858 -998 0
-858 -1033 0
-858 -1068 0
-858 -1103 0
-858 -1138 0
-858 -1173 0
-858 -1208 0
-858 -1243 0
-893 -928 0
-893 -963 0
-893 -998 0
-893 -1033 0
-893 -1068 0
-893 -1103 0
-893 -1138 0
-893 -1173 0
-893 -1208 0
-893 -1243 0
-928 -963 0
-928 -998 0
-928 -1033 0
-928 -1068 0
-928 -1103 0
-928 -1138 0
-928 -1173 0
-928 -1208 0
-928 -1243 0
-963 -998 0
-963 -1033 0
-963 -1068 0
-963 -1103 0
-963 -1138 0
-963 -1173 0
-963 -1208 0
-963 -1243 0
-998 -1033 0
-998 -1068 0
-998 -1103 0
-998 -1138 0
-998 -1173 0
-998 -1208 0
-998 -1243 0
-1033 -1068 0
-1033 -1103 0
-1033 -1138 0
-1033 -1173 0
-1033 -1208 0
-1033 -1243 0
-1068 -1103 0
-1068 -1138 0
-1068 -1173 0
-1068 -1208 0
-1068 -1243 0
-1103 -1138 0
-1103 -1173 0
-1103 -1208 0
-1103 -1243 0
-1138 -1173 0
-1138 -1208 0
-1138 -1243 0
-1173 -1208 0
-1173 -1243 0
-1208 -1243 0
-19 -54 0
-19 -89 0
-19 -124 0
-19 -159 0
-19 -194 0
-19 -229 0
-19 -264 0
-19 -299 0
-19 -334 0
-19 -369 0
-19 -404 0
-19 -439 0
-19 -474 0
-19 -509 0
-19 -544 0
-19 -579 0
-19 -614 0
-19 -649 0
-19 -684 0
-19 -719 0
-19 -754 0
-19 -789 0
-19 -824 0
-19 -859 0
-19 -894 0
-19 -929 0
-19 -964 0
-19 -999 0
-19 -1034 0
-19 -1069 0
-19 -1104 0
-19 -1139 0
-19 -1174 0
-19 -1209 0
-19 -1244 0
-54 -89 0
-54 -124 0
-54 -159 0
-54 -194 0
-54 -229 0
-54 -264 0
-54 -299 0
-54 -334 0
-54 -369 0
-54 -404 0
-54 -439 0
-54 -474 0
-54 -509 0
-54 -544 0
-54 -579 0
-54 -614 0
-54 -649 0
-54 -684 0
-54 -719 0
-54 -754 0
-54 -789 0
-54 -824 0
-54 -859 0
-54 -894 0
-54 -929 0
-54 -964 0
-54 -999 0
-54 -1034 0
-54 -1069 0
-54 -1104 0
-54 -1139 0
-54 -1174 0
-54 -1209 0
-54 -1244 0
-89 -124 0
-89 -159 0
-89 -194 0
-89 -229 0
-89 -264 0
-89 -299 0
-89 -334 0
-89 -369 0
-89 -404 0
-89 -439 0
-89 -474 0
-89 -509 0
-89 -544 0
-89 -579 0
-89 -614 0
-89 -649 0
-89 -684 0
-89 -719 0
-89 -754 0
-89 -789 0
-89 -824 0
-89 -859 0
-89 -894 0
-89 -929 0
-89 -964 0
-89 -999 0
-89 -1034 0
-89 -1069 0
-89 -1104 0
-89 -1139 0
-89 -1174 0
-89 -1209 0
-89 -1244 0
-124 -159 0
-124 -194 0
-124 -229 0
-124 -264 0
-124 -299 0
-124 -334 0
-124 -369 0
-124 -404 0
-124 -439 0
-124 -474 0
-124 -509 0
-124 -544 0
-124 -579 0
-124 -614 0
-124 -649 0
-124 -684 0
-124 -719 0
-124 -754 0
-124 -789 0
-124 -824 0
-124 -859 0
-124 -894 0
-124 -929 0
-124 -964 0
-124 -999 0
-124 -1034 0
-124 -1069 0
-124 -1104 0
-124 -1139 0
-124 -1174 0
-124 -1209 0
-124 -1244 0
-159 -194 0
-159 -229 0
-159 -264 0
-159 -299 0
-159 -334 0
-159 -369 0
-159 -404 0
-159 -439 0
-159 -474 0
-159 -509 0
-159 -544 0
-159 -579 0
-159 -614 0
-159 -649 0
-159 -684 0
-159 -719 0
-159 -754 0
-159 -789 0
-159 -824 0
-159 -859 0
-159 -894 0
-159 -929 0
-159 -964 0
-159 -999 0
-159 -1034 0
-159 -1069 0
-159 -1104 0
-159 -1139 0
-159 -1174 0
-159 -1209 0
-159 -1244 0
-194 -229 0
-194 -264 0
-194 -299 0
-194 -334 0
-194 -369 0
-194 -404 0
-194 -439 0
-194 -474 0
-194 -509 0
-194 -544 0
-194 -579 0
-194 -614 0
-194 -649 0
-194 -684 0
-194 -719 0
-194 -754 0
-194 -789 0
-194 -824 0
-194 -859 0
-194 -894 0
-194 -929 0
-194 -964 0
-194 -999 0
-194 -1034 0
-194 -1069 0
-194 -1104 0
-194 -1139 0
-194 -1174 0
-194 -1209 0
-194 -1244 0
-229 -264 0
-229 -299 0
-229 -334 0
-229 -369 0
-229 -404 0
-229 -439 0
-229 -474 0
-229 -509 0
-229 -544 0
-229 -579 0
-229 -614 0
-229 -649 0
-229 -684 0
-229 -719 0
-229 -754 0
-229 -789 0
-229 -824 0
-229 -859 0
-229 -894 0
-229 -929 0
-229 -964 0
-229 -999 0
-229 -1034 0
-229 -1069 0
-229 -1104 0
-229 -1139 0
-229 -1174 0
-229 -1209 0
-229 -1244 0
-264 -299 0
-264 -334 0
-264 -369 0
-264 -404 0
-264 -439 0
-264 -474 0
-264 -509 0
-264 -544 0
-264 -579 0
-264 -614 0
-264 -649 0
-264 -684 0
-264 -719 0
-264 -754 0
-264 -789 0
-264 -824 0
-264 -859 0
-264 -894 0
-264 -929 0
-264 -964 0
-264 -999 0
-264 -1034 0
-264 -1069 0
-264 -1104 0
-264 -1139 0
-264 -1174 0
-264 -1209 0
-264 -1244 0
-299 -334 0
-299 -369 0
-299 -404 0
-299 -439 0
-299 -474 0
-299 -509 0
-299 -544 0
-299 -579 0
-299 -614 0
-299 -649 0
-299 -684 0
-299 -719 0
-299 -754 0
-299 -789 0
-299 -824 0
-299 -859 0
-299 -894 0
-299 -929 0
-299 -964 0
-299 -999 0
-299 -1034 0
-299 -1069 0
-299 -1104 0
-299 -1139 0
-299 -1174 0
-299 -1209 0
-299 -1244 0
-334 -369 0
-334 -404 0
-334 -439 0
-334 -474 0
-334 -509 0
-334 -544 0
-334 -579 0
-334 -614 0
-334 -649 0
-334 -684 0
-334 -719 0
-334 -754 0
-334 -789 0
-334 -824 0
-334 -859 0
-334 -894 0
-334 -929 0
-334 -964 0
-334 -999 0
-334 -1034 0
-334 -1069 0
-334 -1104 0
-334 -1139 0
-334 -1174 0
-334 -1209 0
-334 -1244 0
-369 -404 0
-369 -439 0
-369 -474 0
-369 -509 0
-369 -544 0
-369 -579 0
-369 -614 0
-369 -649 0
-369 -684 0
-369 -719 0
-369 -754 0
-369 -789 0
-369 -824 0
-369 -859 0
-369 -894 0
-369 -929 0
-369 -964 0
-369 -999 0
-369 -1034 0
-369 -1069 0
-369 -1104 0
-369 -1139 0
-369 -1174 0
-369 -1209 0
-369 -1244 0
-404 -439 0
-404 -474 0
-404 -509 0
-404 -544 0
-404 -579 0
-404 -614 0
-404 -649 0
-404 -684 0
-404 -719 0
-404 -754 0
-404 -789 0
-404 -824 0
-404 -859 0
-404 -894 0
-404 -929 0
-404 -964 0
-404 -999 0
-404 -1034 0
-404 -1069 0
-404 -1104 0
-404 -1139 0
-404 -1174 0
-404 -1209 0
-404 -1244 0
-439 -474 0
-439 -509 0
-439 -544 0
-439 -579 0
-439 -614 0
-439 -649 0
-439 -684 0
-439 -719 0
-439 -754 0
-439 -789 0
-439 -824 0
-439 -859 0
-439 -894 0
-439 -929 0
-439 -964 0
-439 -999 0
-439 -1034 0
-439 -1069 0
-439 -1104 0
-439 -1139 0
-439 -1174 0
-439 -1209 0
-439 -1244 0
-474 -509 0
-474 -544 0
-474 -579 0
-474 -614 0
-474 -649 0
-474 -684 0
-474 -719 0
-474 -754 0
-474 -789 0
-474 -824 0
-474 -859 0
-474 -894 0
-474 -929 0
-474 -964 0
-474 -999 0
-474 -1034 0
-474 -1069 0
-474 -1104 0
-474 -1139 0
-474 -1174 0
-474 -1209 0
-474 -1244 0
-509 -544 0
-509 -579 0
-509 -614 0
-509 -649 0
-509 -684 0
-509 -719 0
-509 -754 0
-509 -789 0
-509 -824 0
-509 -859 0
-509 -894 0
-509 -929 0
-509 -964 0
-509 -999 0
-509 -1034 0
-509 -1069 0
-509 -1104 0
-509 -1139 0
-509 -1174 0
-509 -1209 0
-509 -1244 0
-544 -579 0
-544 -614 0
-544 -649 0
-544 -684 0
-544 -719 0
-544 -754 0
-544 -789 0
-544 -824 0
-544 -859 0
-544 -894 0
-544 -929 0
-544 -964 0
-544 -999 0
-544 -1034 0
-544 -1069 0
-544 -1104 0
-544 -1139 0
-544 -1174 0
-544 -1209 0
-544 -1244 0
-579 -614 0
-579 -649 0
-579 -684 0
-579 -719 0
-579 -754 0
-579 -789 0
-579 -824 0
-579 -859 0
-579 -894 0
-579 -929 0
-579 -964 0
-579 -999 0
-579 -1034 0
-579 -1069 0
-579 -1104 0
-579 -1139 0
-579 -1174 0
-579 -1209 0
-579 -1244 0
-614 -649 0
-614 -684 0
-614 -719 0
-614 -754 0
-614 -789 0
-614 -824 0
-614 -859 0
-614 -894 0
-614 -929 0
-614 -964 0
-614 -999 0
-614 -1034 0
-614 -1069 0
-614 -1104 0
-614 -1139 0
-614 -1174 0
-614 -1209 0
-614 -1244 0
-649 -684 0
-649 -719 0
-649 -754 0
-649 -789 0
-649 -824 0
-649 -859 0
-649 -894 0
-649 -929 0
-649 -964 0
-649 -999 0
-649 -1034 0
-649 -1069 0
-649 -1104 0
-649 -1139 0
-649 -1174 0
-649 -1209 0
-649 -1244 0
-684 -719 0
-684 -754 0
-684 -789 0
-684 -824 0
-684 -859 0
-684 -894 0
-684 -929 0
-684 -964 0
-684 -999 0
-684 -1034 0
-684 -1069 0
-684 -1104 0
-684 -1139 0
-684 -1174 0
-684 -1209 0
-684 -1244 0
-719 -754 0
-719 -789 0
-719 -824 0
-719 -859 0
-719 -894 0
-719 -929 0
-719 -964 0
-719 -999 0
-719 -1034 0
-719 -1069 0
-719 -1104 0
-719 -1139 0
-719 -1174 0
-719 -1209 0
-719 -1244 0
-754 -789 0
-754 -824 0
-754 -859 0
-754 -894 0
-754 -929 0
-754 -964 0
-754 -999 0
-754 -1034 0
-754 -1069 0
-754 -1104 0
-754 -1139 0
-754 -1174 0
-754 -1209 0
-754 -1244 0
-789 -824 0
-789 -859 0
-789 -894 0
-789 -929 0
-789 -964 0
-789 -999 0
-789 -1034 0
-789 -1069 0
-789 -1104 0
-789 -1139 0
-789 -1174 0
-789 -1209 0
-789 -1244 0
-824 -859 0
-824 -894 0
-824 -929 0
-824 -964 0
-824 -999 0
-824 -1034 0
-824 -1069 0
-824 -1104 0
-824 -1139 0
-824 -1174 0
-824 -1209 0
-824 -1244 0
-859 -894 0
-859 -929 0
-859 -964 0
-859 -999 0
-859 -1034 0
-859 -1069 0
-859 -1104 0
-859 -1139 0
-859 -1174 0
-859 -1209 0
-859 -1244 0
-894 -929 0
-894 -964 0
-894 -999 0
-894 -1034 0
-894 -1069 0
-894 -1104 0
-894 -1139 0
-894 -1174 0
-894 -1209 0
-894 -1244 0
-929 -964 0
-929 -999 0
-929 -1034 0
-929 -1069 0
-929 -1104 0
-929 -1139 0
-929 -1174 0
-929 -1209 0
-929 -1244 0
-964 -999 0
-964 -1034 0
-964 -1069 0
-964 -1104 0
-964 -1139 0
-964 -1174 0
-964 -1209 0
-964 -1244 0
-999 -1034 0
-999 -1069 0
-999 -1104 0
-999 -1139 0
-999 -1174 0
-999 -1209 0
-999 -1244 0
-1034 -1069 0
-1034 -1104 0
-1034 -1139 0
-1034 -1174 0
-1034 -1209 0
-1034 -1244 0
-1069 -1104 0
-1069 -1139 0
-1069 -1174 0
-1069 -1209 0
-1069 -1244 0
-1104 -1139 0
-1104 -1174 0
-1104 -1209 0
-1104 -1244 0
-1139 -1174 0
-1139 -1209 0
-1139 -1244 0
-1174 -1209 0
-1174 -1244 0
-1209 -1244 0
-20 -55 0
-20 -90 0
-20 -125 0
-20 -160 0
-20 -195 0
-20 -230 0
-20 -265 0
-20 -300 0
-20 -335 0
-20 -370 0
-20 -405 0
-20 -440 0
-20 -475 0
-20 -510 0
-20 -545 0
-20 -580 0
-20 -615 0
-20 -650 0
-20 -685 0
-20 -720 0
-20 -755 0
-20 -790 0
-20 -825 0
-20 -860 0
-20 -895 0
-20 -930 0
-20 -965 0
-20 -1000 0
-20 -1035 0
-20 -1070 0
-20 -1105 0
-20 -1140 0
-20 -1175 0
-20 -1210 0
-20 -1245 0
-55 -90 0
-55 -125 0
-55 -160 0
-55 -195 0
-55 -230 0
-55 -265 0
-55 -300 0
-55 -335 0
-55 -370 0
-55 -405 0
-55 -440 0
-55 -475 0
-55 -510 0
-55 -545 0
-55 -580 0
-55 -615 0
-55 -650 0
-55 -685 0
-55 -720 0
-55 -755 0
-55 -790 0
-55 -825 0
-55 -860 0
-55 -895 0
-55 -930 0
-55 -965 0
-55 -1000 0
-55 -1035 0
-55 -1070 0
-55 -1105 0
-55 -1140 0
-55 -1175 0
-55 -1210 0
-55 -1245 0
-90 -125 0
-90 -160 0
-90 -195 0
-90 -230 0
-90 -265 0
-90 -300 0
-90 -335 0
-90 -370 0
-90 -405 0
-90 -440 0
-90 -475 0
-90 -510 0
-90 -545 0
-90 -580 0
-90 -615 0
-90 -650 0
-90 -685 0
-90 -720 0
-90 -755 0
-90 -790 0
-90 -825 0
-90 -860 0
-90 -895 0
-90 -930 0
-90 -965 0
-90 -1000 0
-90 -1035 0
-90 -1070 0
-90 -1105 0
-90 -1140 0
-90 -1175 0
-90 -1210 0
-90 -1245 0
-125 -160 0
-125 -195 0
-125 -230 0
-125 -265 0
-125 -300 0
-125 -335 0
-125 -370 0
-125 -405 0
-125 -440 0
-125 -475 0
-125 -510 0
-125 -545 0
-125 -580 0
-125 -615 0
-125 -650 0
-125 -685 0
-125 -720 0
-125 -755 0
-125 -790 0
-125 -825 0
-125 -860 0
-125 -895 0
-125 -930 0
-125 -965 0
-125 -1000 0
-125 -1035 0
-125 -1070 0
-125 -1105 0
-125 -1140 0
-125 -1175 0
-125 -1210 0
-125 -1245 0
-160 -195 0
-160 -230 0
-160 -265 0
-160 -300 0
-160 -335 0
-160 -370 0
-160 -405 0
-160 -440 0
-160 -475 0
-160 -510 0
-160 -545 0
-160 -580 0
-160 -615 0
-160 -650 0
-160 -685 0
-160 -720 0
-160 -755 0
-160 -790 0
-160 -825 0
-160 -860 0
-160 -895 0
-160 -930 0
-160 -965 0
-160 -1000 0
-160 -1035 0
-160 -1070 0
-160 -1105 0
-160 -1140 0
-160 -1175 0
-160 -1210 0
-160 -1245 0
-195 -230 0
-195 -265 0
-195 -300 0
-195 -335 0
-195 -370 0
-195 -405 0
-195 -440 0
-195 -475 0
-195 -510 0
-195 -545 0
-195 -580 0
-195 -615 0
-195 -650 0
-195 -685 0
-195 -720 0
-195 -755 0
-195 -790 0
-195 -825 0
-195 -860 0
-195 -895 0
-195 -930 0
-195 -965 0
-195 -1000 0
-195 -1035 0
-195 -1070 0
-195 -1105 0
-195 -1140 0
-195 -1175 0
-195 -1210 0
-195 -1245 0
-230 -265 0
-230 -300 0
-230 -335 0
-230 -370 0
-230 -405 0
-230 -440 0
-230 -475 0
-230 -510 0
-230 -545 0
-230 -580 0
-230 -615 0
-230 -650 0
-230 -685 0
-230 -720 0
-230 -755 0
-230 -790 0
-230 -825 0
-230 -860 0
-230 -895 0
-230 -930 0
-230 -965 0
-230 -1000 0
-230 -1035 0
-230 -1070 0
-230 -1105 0
-230 -1140 0
-230 -1175 0
-230 -1210 0
-230 -1245 0
-265 -300 0
-265 -335 0
-265 -370 0
-265 -405 0
-265 -440 0
-265 -475 0
-265 -510 0
-265 -545 0
-265 -580 0
-265 -615 0
-265 -650 0
-265 -685 0
-265 -720 0
-265 -755 0
-265 -790 0
-265 -825 0
-265 -860 0
-265 -895 0
-265 -930 0
-265 -965 0
-265 -1000 0
-265 -1035 0
-265 -1070 0
-265 -1105 0
-265 -1140 0
-265 -1175 0
-265 -1210 0
-265 -1245 0
-300 -335 0
-300 -370 0
-300 -405 0
-300 -440 0
-300 -475 0
-300 -510 0
-300 -545 0
-300 -580 0
-300 -615 0
-300 -650 0
-300 -685 0
-300 -720 0
-300 -755 0
-300 -790 0
-300 -825 0
-300 -860 0
-300 -895 0
-300 -930 0
-300 -965 0
-300 -1000 0
-300 -1035 0
-300 -1070 0
-300 -1105 0
-300 -1140 0
-300 -1175 0
-300 -1210 0
-300 -1245 0
-335 -370 0
-335 -405 0
-335 -440 0
-335 -475 0
-335 -510 0
-335 -545 0
-335 -580 0
-335 -615 0
-335 -650 0
-335 -685 0
-335 -720 0
-335 -755 0
-335 -790 0
-335 -825 0
-335 -860 0
-335 -895 0
-335 -930 0
-335 -965 0
-335 -1000 0
-335 -1035 0
-335 -1070 0
-335 -1105 0
-335 -1140 0
-335 -1175 0
-335 -1210 0
-335 -1245 0
-370 -405 0
-370 -440 0
-370 -475 0
-370 -510 0
-370 -545 0
-370 -580 0
-370 -615 0
-370 -650 0
-370 -685 0
-370 -720 0
-370 -755 0
-370 -790 0
-370 -825 0
-370 -860 0
-370 -895 0
-370 -930 0
-370 -965 0
-370 -1000 0
-370 -1035 0
-370 -1070 0
-370 -1105 0
-370 -1140 0
-370 -1175 0
-370 -1210 0
-370 -1245 0
-405 -440 0
-405 -475 0
-405 -510 0
-405 -545 0
-405 -580 0
-405 -615 0
-405 -650 0
-405 -685 0
-405 -720 0
-405 -755 0
-405 -790 0
-405 -825 0
-405 -860 0
-405 -895 0
-405 -930 0
-405 -965 0
-405 -1000 0
-405 -1035 0
-405 -1070 0
-405 -1105 0
-405 -1140 0
-405 -1175 0
-405 -1210 0
-405 -1245 0
-440 -475 0
-440 -510 0
-440 -545 0
-440 -580 0
-440 -615 0
-440 -650 0
-440 -685 0
-440 -720 0
-440 -755 0
-440 -790 0
-440 -825 0
-440 -860 0
-440 -895 0
-440 -930 0
-440 -965 0
-440 -1000 0
-440 -1035 0
-440 -1070 0
-440 -1105 0
-440 -1140 0
-440 -1175 0
-440 -1210 0
-440 -1245 0
-475 -510 0
-475 -545 0
-475 -580 0
-475 -615 0
-475 -650 0
-475 -685 0
-475 -720 0
-475 -755 0
-475 -790 0
-475 -825 0
-475 -860 0
-475 -895 0
-475 -930 0
-475 -965 0
-475 -1000 0
-475 -1035 0
-475 -1070 0
-475 -1105 0
-475 -1140 0
-475 -1175 0
-475 -1210 0
-475 -1245 0
-510 -545 0
-510 -580 0
-510 -615 0
-510 -650 0
-510 -685 0
-510 -720 0
-510 -755 0
-510 -790 0
-510 -825 0
-510 -860 0
-510 -895 0
-510 -930 0
-510 -965 0
-510 -1000 0
-510 -1035 0
-510 -1070 0
-510 -1105 0
-510 -1140 0
-510 -1175 0
-510 -1210 0
-510 -1245 0
-545 -580 0
-545 -615 0
-545 -650 0
-545 -685 0
-545 -720 0
-545 -755 0
-545 -790 0
-545 -825 0
-545 -860 0
-545 -895 0
-545 -930 0
-545 -965 0
-545 -1000 0
-545 -1035 0
-545 -1070 0
-545 -1105 0
-545 -1140 0
-545 -1175 0
-545 -1210 0
-545 -1245 0
-580 -615 0
-580 -650 0
-580 -685 0
-580 -720 0
-580 -755 0
-580 -790 0
-580 -825 0
-580 -860 0
-580 -895 0
-580 -930 0
-580 -965 0
-580 -1000 0
-580 -1035 0
-580 -1070 0
-580 -1105 0
-580 -1140 0
-580 -1175 0
-580 -1210 0
-580 -1245 0
-615 -650 0
-615 -685 0
-615 -720 0
-615 -755 0
-615 -790 0
-615 -825 0
-615 -860 0
-615 -895 0
-615 -930 0
-615 -965 0
-615 -1000 0
-615 -1035 0
-615 -1070 0
-615 -1105 0
-615 -1140 0
-615 -1175 0
-615 -1210 0
-615 -1245 0
-650 -685 0
-650 -720 0
-650 -755 0
-650 -790 0
-650 -825 0
-650 -860 0
-650 -895 0
-650 -930 0
-650 -965 0
-650 -1000 0
-650 -1035 0
-650 -1070 0
-650 -1105 0
-650 -1140 0
-650 -1175 0
-650 -1210 0
-650 -1245 0
-685 -720 0
-685 -755 0
-685 -790 0
-685 -825 0
-685 -860 0
-685 -895 0
-685 -930 0
-685 -965 0
-685 -1000 0
-685 -1035 0
-685 -1070 0
-685 -1105 0
-685 -1140 0
-685 -1175 0
-685 -1210 0
-685 -1245 0
-720 -755 0
-720 -790 0
-720 -825 0
-720 -860 0
-720 -895 0
-720 -930 0
-720 -965 0
-720 -1000 0
-720 -1035 0
-720 -1070 0
-720 -1105 0
-720 -1140 0
-720 -1175 0
-720 -1210 0
-720 -1245 0
-755 -790 0
-755 -825 0
-755 -860 0
-755 -895 0
-755 -930 0
-755 -965 0
-755 -1000 0
-755 -1035 0
-755 -1070 0
-755 -1105 0
-755 -1140 0
-755 -1175 0
-755 -1210 0
-755 -1245 0
-790 -825 0
-790 -860 0
-790 -895 0
-790 -930 0
-790 -965 0
-790 -1000 0
-790 -1035 0
-790 -1070 0
-790 -1105 0
-790 -1140 0
-790 -1175 0
-790 -1210 0
-790 -1245 0
-825 -860 0
-825 -895 0
-825 -930 0
-825 -965 0
-825 -1000 0
-825 -1035 0
-825 -1070 0
-825 -1105 0
-825 -1140 0
-825 -1175 0
-825 -1210 0
-825 -1245 0
-860 -895 0
-860 -930 0
-860 -965 0
-860 -1000 0
-860 -1035 0
-860 -1070 0
-860 -1105 0
-860 -1140 0
-860 -1175 0
-860 -1210 0
-860 -1245 0
-895 -930 0
-895 -965 0
-895 -1000 0
-895 -1035 0
-895 -1070 0
-895 -1105 0
-895 -1140 0
-895 -1175 0
-895 -1210 0
-895 -1245 0
-930 -965 0
-930 -1000 0
-930 -1035 0
-930 -1070 0
-930 -1105 0
-930 -1140 0
-930 -1175 0
-930 -1210 0
-930 -1245 0
-965 -1000 0
-965 -1035 0
-965 -1070 0
-965 -1105 0
-965 -1140 0
-965 -1175 0
-965 -1210 0
-965 -1245 0
-1000 -1035 0
-1000 -1070 0
-1000 -1105 0
-1000 -1140 0
-1000 -1175 0
-1000 -1210 0
-1000 -1245 0
-1035 -1070 0
-1035 -1105 0
-1035 -1140 0
-1035 -1175 0
-1035 -1210 0
-1035 -1245 0
-1070 -1105 0
-1070 -1140 0
-1070 -1175 0
-1070 -1210 0
-1070 -1245 0
-1105 -1140 0
-1105 -1175 0
-1105 -1210 0
-1105 -1245 0
-1140 -1175 0
-1140 -1210 0
-1140 -1245 0
-1175 -1210 0
-1175 -1245 0
-1210 -1245 0
-21 -56 0
-21 -91 0
-21 -126 0
-21 -161 0
-21 -196 0
-21 -231 0
-21 -266 0
-21 -301 0
-21 -336 0
-21 -371 0
-21 -406 0
-21 -441 0
-21 -476 0
-21 -511 0
-21 -546 0
-21 -581 0
-21 -616 0
-21 -651 0
-21 -686 0
-21 -721 0
-21 -756 0
-21 -791 0
-21 -826 0
-21 -861 0
-21 -896 0
-21 -931 0
-21 -966 0
-21 -1001 0
-21 -1036 0
-21 -1071 0
-21 -1106 0
-21 -1141 0
-21 -1176 0
-21 -1211 0
-21 -1246 0
-56 -91 0
-56 -126 0
-56 -161 0
-56 -196 0
-56 -231 0
-56 -266 0
-56 -301 0
-56 -336 0
-56 -371 0
-56 -406 0
-56 -441 0
-56 -476 0
-56 -511 0
-56 -546 0
-56 -581 0
-56 -616 0
-56 -651 0
-56 -686 0
-56 -721 0
-56 -756 0
-56 -791 0
-56 -826 0
-56 -861 0
-56 -896 0
-56 -931 0
-56 -966 0
-56 -1001 0
-56 -1036 0
-56 -1071 0
-56 -1106 0
-56 -1141 0
-56 -1176 0
-56 -1211 0
-56 -1246 0
-91 -126 0
-91 -161 0
-91 -196 0
-91 -231 0
-91 -266 0
-91 -301 0
-91 -336 0
-91 -371 0
-91 -406 0
-91 -441 0
-91 -476 0
-91 -511 0
-91 -546 0
-91 -581 0
-91 -616 0
-91 -651 0
-91 -686 0
-91 -721 0
-91 -756 0
-91 -791 0
-91 -826 0
-91 -861 0
-91 -896 0
-91 -931 0
-91 -966 0
-91 -1001 0
-91 -1036 0
-91 -1071 0
-91 -1106 0
-91 -1141 0
-91 -1176 0
-91 -1211 0
-91 -1246 0
-126 -161 0
-126 -196 0
-126 -231 0
-126 -266 0
-126 -301 0
-126 -336 0
-126 -371 0
-126 -406 0
-126 -441 0
-126 -476 0
-126 -511 0
-126 -546 0
-126 -581 0
-126 -616 0
-126 -651 0
-126 -686 0
-126 -721 0
-126 -756 0
-126 -791 0
-126 -826 0
-126 -861 0
-126 -896 0
-126 -931 0
-126 -966 0
-126 -1001 0
-126 -1036 0
-126 -1071 0
-126 -1106 0
-126 -1141 0
-126 -1176 0
-126 -1211 0
-126 -1246 0
-161 -196 0
-161 -231 0
-161 -266 0
-161 -301 0
-161 -336 0
-161 -371 0
-161 -406 0
-161 -441 0
-161 -476 0
-161 -511 0
-161 -546 0
-161 -581 0
-161 -616 0
-161 -651 0
-161 -686 0
-161 -721 0
-161 -756 0
-161 -791 0
-161 -826 0
-161 -861 0
-161 -896 0
-161 -931 0
-161 -966 0
-161 -1001 0
-161 -1036 0
-161 -1071 0
-161 -1106 0
-161 -1141 0
-161 -1176 0
-161 -1211 0
-161 -1246 0
-196 -231 0
-196 -266 0
-196 -301 0
-196 -336 0
-196 -371 0
-196 -406 0
-196 -441 0
-196 -476 0
-196 -511 0
-196 -546 0
-196 -581 0
-196 -616 0
-196 -651 0
-196 -686 0
-196 -721 0
-196 -756 0
-196 -791 0
-196 -826 0
-196 -861 0
-196 -896 0
-196 -931 0
-196 -966 0
-196 -1001 0
-196 -1036 0
-196 -1071 0
-196 -1106 0
-196 -1141 0
-196 -1176 0
-196 -1211 0
-196 -1246 0
-231 -266 0
-231 -301 0
-231 -336 0
-231 -371 0
-231 -406 0
-231 -441 0
-231 -476 0
-231 -511 0
-231 -546 0
-231 -581 0
-231 -616 0
-231 -651 0
-231 -686 0
-231 -721 0
-231 -756 0
-231 -791 0
-231 -826 0
-231 -861 0
-231 -896 0
-231 -931 0
-231 -966 0
-231 -1001 0
-231 -1036 0
-231 -1071 0
-231 -1106 0
-231 -1141 0
-231 -1176 0
-231 -1211 0
-231 -1246 0
-266 -301 0
-266 -336 0
-266 -371 0
-266 -406 0
-266 -441 0
-266 -476 0
-266 -511 0
-266 -546 0
-266 -581 0
-266 -616 0
-266 -651 0
-266 -686 0
-266 -721 0
-266 -756 0
-266 -791 0
-266 -826 0
-266 -861 0
-266 -896 0
-266 -931 0
-266 -966 0
-266 -1001 0
-266 -1036 0
-266 -1071 0
-266 -1106 0
-266 -1141 0
-266 -1176 0
-266 -1211 0
-266 -1246 0
-301 -336 0
-301 -371 0
-301 -406 0
-301 -441 0
-301 -476 0
-301 -511 0
-301 -546 0
-301 -581 0
-301 -616 0
-301 -651 0
-301 -686 0
-301 -721 0
-301 -756 0
-301 -791 0
-301 -826 0
-301 -861 0
-301 -896 0
-301 -931 0
-301 -966 0
-301 -1001 0
-301 -1036 0
-301 -1071 0
-301 -1106 0
-301 -1141 0
-301 -1176 0
-301 -1211 0
-301 -1246 0
-336 -371 0
-336 -406 0
-336 -441 0
-336 -476 0
-336 -511 0
-336 -546 0
-336 -581 0
-336 -616 0
-336 -651 0
-336 -686 0
-336 -721 0
-336 -756 0
-336 -791 0
-336 -826 0
-336 -861 0
-336 -896 0
-336 -931 0
-336 -966 0
-336 -1001 0
-336 -1036 0
-336 -1071 0
-336 -1106 0
-336 -1141 0
-336 -1176 0
-336 -1211 0
-336 -1246 0
-371 -406 0
-371 -441 0
-371 -476 0
-371 -511 0
-371 -546 0
-371 -581 0
-371 -616 0
-371 -651 0
-371 -686 0
-371 -721 0
-371 -756 0
-371 -791 0
-371 -826 0
-371 -861 0
-371 -896 0
-371 -931 0
-371 -966 0
-371 -1001 0
-371 -1036 0
-371 -1071 0
-371 -1106 0
-371 -1141 0
-371 -1176 0
-371 -1211 0
-371 -1246 0
-406 -441 0
-406 -476 0
-406 -511 0
-406 -546 0
-406 -581 0
-406 -616 0
-406 -651 0
-406 -686 0
-406 -721 0
-406 -756 0
-406 -791 0
-406 -826 0
-406 -861 0
-406 -896 0
-406 -931 0
-406 -966 0
-406 -1001 0
-406 -1036 0
-406 -1071 0
-406 -1106 0
-406 -1141 0
-406 -1176 0
-406 -1211 0
-406 -1246 0
-441 -476 0
-441 -511 0
-441 -546 0
-441 -581 0
-441 -616 0
-441 -651 0
-441 -686 0
-441 -721 0
-441 -756 0
-441 -791 0
-441 -826 0
-441 -861 0
-441 -896 0
-441 -931 0
-441 -966 0
-441 -1001 0
-441 -1036 0
-441 -1071 0
-441 -1106 0
-441 -1141 0
-441 -1176 0
-441 -1211 0
-441 -1246 0
-476 -511 0
-476 -546 0
-476 -581 0
-476 -616 0
-476 -651 0
-476 -686 0
-476 -721 0
-476 -756 0
-476 -791 0
-476 -826 0
-476 -861 0
-476 -896 0
-476 -931 0
-476 -966 0
-476 -1001 0
-476 -1036 0
-476 -1071 0
-476 -1106 0
-476 -1141 0
-476 -1176 0
-476 -1211 0
-476 -1246 0
-511 -546 0
-511 -581 0
-511 -616 0
-511 -651 0
-511 -686 0
-511 -721 0
-511 -756 0
-511 -791 0
-511 -826 0
-511 -861 0
-511 -896 0
-511 -931 0
-511 -966 0
-511 -1001 0
-511 -1036 0
-511 -1071 0
-511 -1106 0
-511 -1141 0
-511 -1176 0
-511 -1211 0
-511 -1246 0
-546 -581 0
-546 -616 0
-546 -651 0
-546 -686 0
-546 -721 0
-546 -756 0
-546 -791 0
-546 -826 0
-546 -861 0
-546 -896 0
-546 -931 0
-546 -966 0
-546 -1001 0
-546 -1036 0
-546 -1071 0
-546 -1106 0
-546 -1141 0
-546 -1176 0
-546 -1211 0
-546 -1246 0
-581 -616 0
-581 -651 0
-581 -686 0
-581 -721 0
-581 -756 0
-581 -791 0
-581 -826 0
-581 -861 0
-581 -896 0
-581 -931 0
-581 -966 0
-581 -1001 0
-581 -1036 0
-581 -1071 0
-581 -1106 0
-581 -1141 0
-581 -1176 0
-581 -1211 0
-581 -1246 0
-616 -651 0
-616 -686 0
-616 -721 0
-616 -756 0
-616 -791 0
-616 -826 0
-616 -861 0
-616 -896 0
-616 -931 0
-616 -966 0
-616 -1001 0
-616 -1036 0
-616 -1071 0
-616 -1106 0
-616 -1141 0
-616 -1176 0
-616 -1211 0
-616 -1246 0
-651 -686 0
-651 -721 0
-651 -756 0
-651 -791 0
-651 -826 0
-651 -861 0
-651 -896 0
-651 -931 0
-651 -966 0
-651 -1001 0
-651 -1036 0
-651 -1071 0
-651 -1106 0
-651 -1141 0
-651 -1176 0
-651 -1211 0
-651 -1246 0
-686 -721 0
-686 -756 0
-686 -791 0
-686 -826 0
-686 -861 0
-686 -896 0
-686 -931 0
-686 -966 0
-686 -1001 0
-686 -1036 0
-686 -1071 0
-686 -1106 0
-686 -1141 0
-686 -1176 0
-686 -1211 0
-686 -1246 0
-721 -756 0
-721 -791 0
-721 -826 0
-721 -861 0
-721 -896 0
-721 -931 0
-721 -966 0
-721 -1001 0
-721 -1036 0
-721 -1071 0
-721 -1106 0
-721 -1141 0
-721 -1176 0
-721 -1211 0
-721 -1246 0
-756 -791 0
-756 -826 0
-756 -861 0
-756 -896 0
-756 -931 0
-756 -966 0
-756 -1001 0
-756 -1036 0
-756 -1071 0
-756 -1106 0
-756 -1141 0
-756 -1176 0
-756 -1211 0
-756 -1246 0
-791 -826 0
-791 -861 0
-791 -896 0
-791 -931 0
-791 -966 0
-791 -1001 0
-791 -1036 0
-791 -1071 0
-791 -1106 0
-791 -1141 0
-791 -1176 0
-791 -1211 0
-791 -1246 0
-826 -861 0
-826 -896 0
-826 -931 0
-826 -966 0
-826 -1001 0
-826 -1036 0
-826 -1071 0
-826 -1106 0
-826 -1141 0
-826 -1176 0
-826 -1211 0
-826 -1246 0
-861 -896 0
-861 -931 0
-861 -966 0
-861 -1001 0
-861 -1036 0
-861 -1071 0
-861 -1106 0
-861 -1141 0
-861 -1176 0
-861 -1211 0
-861 -1246 0
-896 -931 0
-896 -966 0
-896 -1001 0
-896 -1036 0
-896 -1071 0
-896 -1106 0
-896 -1141 0
-896 -1176 0
-896 -1211 0
-896 -1246 0
-931 -966 0
-931 -1001 0
-931 -1036 0
-931 -1071 0
-931 -1106 0
-931 -1141 0
-931 -1176 0
-931 -1211 0
-931 -1246 0
-966 -1001 0
-966 -1036 0
-966 -1071 0
-966 -1106 0
-966 -1141 0
-966 -1176 0
-966 -1211 0
-966 -1246 0
-1001 -1036 0
-1001 -1071 0
-1001 -1106 0
-1001 -1141 0
-1001 -1176 0
-1001 -1211 0
-1001 -1246 0
-1036 -1071 0
-1036 -1106 0
-1036 -1141 0
-1036 -1176 0
-1036 -1211 0
-1036 -1246 0
-1071 -1106 0
-1071 -1141 0
-1071 -1176 0
-1071 -1211 0
-1071 -1246 0
-1106 -1141 0
-1106 -1176 0
-1106 -1211 0
-1106 -1246 0
-1141 -1176 0
-1141 -1211 0
-1141 -1246 0
-1176 -1211 0
-1176 -1246 0
-1211 -1246 0
-22 -57 0
-22 -92 0
-22 -127 0
-22 -162 0
-22 -197 0
-22 -232 0
-22 -267 0
-22 -302 0
-22 -337 0
-22 -372 0
-22 -407 0
-22 -442 0
-22 -477 0
-22 -512 0
-22 -547 0
-22 -582 0
-22 -617 0
-22 -652 0
-22 -687 0
-22 -722 0
-22 -757 0
-22 -792 0
-22 -827 0
-22 -862 0
-22 -897 0
-22 -932 0
-22 -967 0
-22 -1002 0
-22 -1037 0
-22 -1072 0
-22 -1107 0
-22 -1142 0
-22 -1177 0
-22 -1212 0
-22 -1247 0
-57 -92 0
-57 -127 0
-57 -162 0
-57 -197 0
-57 -232 0
-57 -267 0
-57 -302 0
-57 -337 0
-57 -372 0
-57 -407 0
-57 -442 0
-57 -477 0
-57 -512 0
-57 -547 0
-57 -582 0
-57 -617 0
-57 -652 0
-57 -687 0
-57 -722 0
-57 -757 0
-57 -792 0
-57 -827 0
-57 -862 0
-57 -897 0
-57 -932 0
-57 -967 0
-57 -1002 0
-57 -1037 0
-57 -1072 0
-57 -1107 0
-57 -1142 0
-57 -1177 0
-57 -1212 0
-57 -1247 0
-92 -127 0
-92 -162 0
-92 -197 0
-92 -232 0
-92 -267 0
-92 -302 0
-92 -337 0
-92 -372 0
-92 -407 0
-92 -442 0
-92 -477 0
-92 -512 0
-92 -547 0
-92 -582 0
-92 -617 0
-92 -652 0
-92 -687 0
-92 -722 0
-92 -757 0
-92 -792 0
-92 -827 0
-92 -862 0
-92 -897 0
-92 -932 0
-92 -967 0
-92 -1002 0
-92 -1037 0
-92 -1072 0
-92 -1107 0
-92 -1142 0
-92 -1177 0
-92 -1212 0
-92 -1247 0
-127 -162 0
-127 -197 0
-127 -232 0
-127 -267 0
-127 -302 0
-127 -337 0
-127 -372 0
-127 -407 0
-127 -442 0
-127 -477 0
-127 -512 0
-127 -547 0
-127 -582 0
-127 -617 0
-127 -652 0
-127 -687 0
-127 -722 0
-127 -757 0
-127 -792 0
-127 -827 0
-127 -862 0
-127 -897 0
-127 -932 0
-127 -967 0
-127 -1002 0
-127 -1037 0
-127 -1072 0
-127 -1107 0
-127 -1142 0
-127 -1177 0
-127 -1212 0
-127 -1247 0
-162 -197 0
-162 -232 0
-162 -267 0
-162 -302 0
-162 -337 0
-162 -372 0
-162 -407 0
-162 -442 0
-162 -477 0
-162 -512 0
-162 -547 0
-162 -582 0
-162 -617 0
-162 -652 0
-162 -687 0
-162 -722 0
-162 -757 0
-162 -792 0
-162 -827 0
-162 -862 0
-162 -897 0
-162 -932 0
-162 -967 0
-162 -1002 0
-162 -1037 0
-162 -1072 0
-162 -1107 0
-162 -1142 0
-162 -1177 0
-162 -1212 0
-162 -1247 0
-197 -232 0
-197 -267 0
-197 -302 0
-197 -337 0
-197 -372 0
-197 -407 0
-197 -442 0
-197 -477 0
-197 -512 0
-197 -547 0
-197 -582 0
-197 -617 0
-197 -652 0
-197 -687 0
-197 -722 0
-197 -757 0
-197 -792 0
-197 -827 0
-197 -862 0
-197 -897 0
-197 -932 0
-197 -967 0
-197 -1002 0
-197 -1037 0
-197 -1072 0
-197 -1107 0
-197 -1142 0
-197 -1177 0
-197 -1212 0
-197 -1247 0
-232 -267 0
-232 -302 0
-232 -337 0
-232 -372 0
-232 -407 0
-232 -442 0
-232 -477 0
-232 -512 0
-232 -547 0
-232 -582 0
-232 -617 0
-232 -652 0
-232 -687 0
-232 -722 0
-232 -757 0
-232 -792 0
-232 -827 0
-232 -862 0
-232 -897 0
-232 -932 0
-232 -967 0
-232 -1002 0
-232 -1037 0
-232 -1072 0
-232 -1107 0
-232 -1142 0
-232 -1177 0
-232 -1212 0
-232 -1247 0
-267 -302 0
-267 -337 0
-267 -372 0
-267 -407 0
-267 -442 0
-267 -477 0
-267 -512 0
-267 -547 0
-267 -582 0
-267 -617 0
-267 -652 0
-267 -687 0
-267 -722 0
-267 -757 0
-267 -792 0
-267 -827 0
-267 -862 0
-267 -897 0
-267 -932 0
-267 -967 0
-267 -1002 0
-267 -1037 0
-267 -1072 0
-267 -1107 0
-267 -1142 0
-267 -1177 0
-267 -1212 0
-267 -1247 0
-302 -337 0
-302 -372 0
-302 -407 0
-302 -442 0
-302 -477 0
-302 -512 0
-302 -547 0
-302 -582 0
-302 -617 0
-302 -652 0
-302 -687 0
-302 -722 0
-302 -757 0
-302 -792 0
-302 -827 0
-302 -862 0
-302 -897 0
-302 -932 0
-302 -967 0
-302 -1002 0
-302 -1037 0
-302 -1072 0
-302 -1107 0
-302 -1142 0
-302 -1177 0
-302 -1212 0
-302 -1247 0
-337 -372 0
-337 -407 0
-337 -442 0
-337 -477 0
-337 -512 0
-337 -547 0
-337 -582 0
-337 -617 0
-337 -652 0
-337 -687 0
-337 -722 0
-337 -757 0
-337 -792 0
-337 -827 0
-337 -862 0
-337 -897 0
-337 -932 0
-337 -967 0
-337 -1002 0
-337 -1037 0
-337 -1072 0
-337 -1107 0
-337 -1142 0
-337 -1177 0
-337 -1212 0
-337 -1247 0
-372 -407 0
-372 -442 0
-372 -477 0
-372 -512 0
-372 -547 0
-372 -582 0
-372 -617 0
-372 -652 0
-372 -687 0
-372 -722 0
-372 -757 0
-372 -792 0
-372 -827 0
-372 -862 0
-372 -897 0
-372 -932 0
-372 -967 0
-372 -1002 0
-372 -1037 0
-372 -1072 0
-372 -1107 0
-372 -1142 0
-372 -1177 0
-372 -1212 0
-372 -1247 0
-407 -442 0
-407 -477 0
-407 -512 0
-407 -547 0
-407 -582 0
-407 -617 0
-407 -652 0
-407 -687 0
-407 -722 0
-407 -757 0
-407 -792 0
-407 -827 0
-407 -862 0
-407 -897 0
-407 -932 0
-407 -967 0
-407 -1002 0
-407 -1037 0
-407 -1072 0
-407 -1107 0
-407 -1142 0
-407 -1177 0
-407 -1212 0
-407 -1247 0
-442 -477 0
-442 -512 0
-442 -547 0
-442 -582 0
-442 -617 0
-442 -652 0
-442 -687 0
-442 -722 0
-442 -757 0
-442 -792 0
-442 -827 0
-442 -862 0
-442 -897 0
-442 -932 0
-442 -967 0
-442 -1002 0
-442 -1037 0
-442 -1072 0
-442 -1107 0
-442 -1142 0
-442 -1177 0
-442 -1212 0
-442 -1247 0
-477 -512 0
-477 -547 0
-477 -582 0
-477 -617 0
-477 -652 0
-477 -687 0
-477 -722 0
-477 -757 0
-477 -792 0
-477 -827 0
-477 -862 0
-477 -897 0
-477 -932 0
-477 -967 0
-477 -1002 0
-477 -1037 0
-477 -1072 0
-477 -1107 0
-477 -1142 0
-477 -1177 0
-477 -1212 0
-477 -1247 0
-512 -547 0
-512 -582 0
-512 -617 0
-512 -652 0
-512 -687 0
-512 -722 0
-512 -757 0
-512 -792 0
-512 -827 0
-512 -862 0
-512 -897 0
-512 -932 0
-512 -967 0
-512 -1002 0
-512 -1037 0
-512 -1072 0
-512 -1107 0
-512 -1142 0
-512 -1177 0
-512 -1212 0
-512 -1247 0
-547 -582 0
-547 -617 0
-547 -652 0
-547 -687 0
-547 -722 0
-547 -757 0
-547 -792 0
-547 -827 0
-547 -862 0
-547 -897 0
-547 -932 0
-547 -967 0
-547 -1002 0
-547 -1037 0
-547 -1072 0
-547 -1107 0
-547 -1142 0
-547 -1177 0
-547 -1212 0
-547 -1247 0
-582 -617 0
-582 -652 0
-582 -687 0
-582 -722 0
-582 -757 0
-582 -792 0
-582 -827 0
-582 -862 0
-582 -897 0
-582 -932 0
-582 -967 0
-582 -1002 0
-582 -1037 0
-582 -1072 0
-582 -1107 0
-582 -1142 0
-582 -1177 0
-582 -1212 0
-582 -1247 0
-617 -652 0
-617 -687 0
-617 -722 0
-617 -757 0
-617 -792 0
-617 -827 0
-617 -862 0
-617 -897 0
-617 -932 0
-617 -967 0
-617 -1002 0
-617 -1037 0
-617 -1072 0
-617 -1107 0
-617 -1142 0
-617 -1177 0
-617 -1212 0
-617 -1247 0
-652 -687 0
-652 -722 0
-652 -757 0
-652 -792 0
-652 -827 0
-652 -862 0
-652 -897 0
-652 -932 0
-652 -967 0
-652 -1002 0
-652 -1037 0
-652 -1072 0
-652 -1107 0
-652 -1142 0
-652 -1177 0
-652 -1212 0
-652 -1247 0
-687 -722 0
-687 -757 0
-687 -792 0
-687 -827 0
-687 -862 0
-687 -897 0
-687 -932 0
-687 -967 0
-687 -1002 0
-687 -1037 0
-687 -1072 0
-687 -1107 0
-687 -1142 0
-687 -1177 0
-687 -1212 0
-687 -1247 0
-722 -757 0
-722 -792 0
-722 -827 0
-722 -862 0
-722 -897 0
-722 -932 0
-722 -967 0
-722 -1002 0
-722 -1037 0
-722 -1072 0
-722 -1107 0
-722 -1142 0
-722 -1177 0
-722 -1212 0
-722 -1247 0
-757 -792 0
-757 -827 0
-757 -862 0
-757 -897 0
-757 -932 0
-757 -967 0
-757 -1002 0
-757 -1037 0
-757 -1072 0
-757 -1107 0
-757 -1142 0
-757 -1177 0
-757 -1212 0
-757 -1247 0
-792 -827 0
-792 -862 0
-792 -897 0
-792 -932 0
-792 -967 0
-792 -1002 0
-792 -1037 0
-792 -1072 0
-792 -1107 0
-792 -1142 0
-792 -1177 0
-792 -1212 0
-792 -1247 0
-827 -862 0
-827 -897 0
-827 -932 0
-827 -967 0
-827 -1002 0
-827 -1037 0
-827 -1072 0
-827 -1107 0
-827 -1142 0
-827 -1177 0
-827 -1212 0
-827 -1247 0
-862 -897 0
-862 -932 0
-862 -967 0
-862 -1002 0
-862 -1037 0
-862 -1072 0
-862 -1107 0
-862 -1142 0
-862 -1177 0
-862 -1212 0
-862 -1247 0
-897 -932 0
-897 -967 0
-897 -1002 0
-897 -1037 0
-897 -1072 0
-897 -1107 0
-897 -1142 0
-897 -1177 0
-897 -1212 0
-897 -1247 0
-932 -967 0
-932 -1002 0
-932 -1037 0
-932 -1072 0
-932 -1107 0
-932 -1142 0
-932 -1177 0
-932 -1212 0
-932 -1247 0
-967 -1002 0
-967 -1037 0
-967 -1072 0
-967 -1107 0
-967 -1142 0
-967 -1177 0
-967 -1212 0
-967 -1247 0
-1002 -1037 0
-1002 -1072 0
-1002 -1107 0
-1002 -1142 0
-1002 -1177 0
-1002 -1212 0
-1002 -1247 0
-1037 -1072 0
-1037 -1107 0
-1037 -1142 0
-1037 -1177 0
-1037 -1212 0
-1037 -1247 0
-1072 -1107 0
-1072 -1142 0
-1072 -1177 0
-1072 -1212 0
-1072 -1247 0
-1107 -1142 0
-1107 -1177 0
-1107 -1212 0
-1107 -1247 0
-1142 -1177 0
-1142 -1212 0
-1142 -1247 0
-1177 -1212 0
-1177 -1247 0
-1212 -1247 0
-23 -58 0
-23 -93 0
-23 -128 0
-23 -163 0
-23 -198 0
-23 -233 0
-23 -268 0
-23 -303 0
-23 -338 0
-23 -373 0
-23 -408 0
-23 -443 0
-23 -478 0
-23 -513 0
-23 -548 0
-23 -583 0
-23 -618 0
-23 -653 0
-23 -688 0
-23 -723 0
-23 -758 0
-23 -793 0
-23 -828 0
-23 -863 0
-23 -898 0
-23 -933 0
-23 -968 0
-23 -1003 0
-23 -1038 0
-23 -1073 0
-23 -1108 0
-23 -1143 0
-23 -1178 0
-23 -1213 0
-23 -1248 0
-58 -93 0
-58 -128 0
-58 -163 0
-58 -198 0
-58 -233 0
-58 -268 0
-58 -303 0
-58 -338 0
-58 -373 0
-58 -408 0
-58 -443 0
-58 -478 0
-58 -513 0
-58 -548 0
-58 -583 0
-58 -618 0
-58 -653 0
-58 -688 0
-58 -723 0
-58 -758 0
-58 -793 0
-58 -828 0
-58 -863 0
-58 -898 0
-58 -933 0
-58 -968 0
-58 -1003 0
-58 -1038 0
-58 -1073 0
-58 -1108 0
-58 -1143 0
-58 -1178 0
-58 -1213 0
-58 -1248 0
-93 -128 0
-93 -163 0
-93 -198 0
-93 -233 0
-93 -268 0
-93 -303 0
-93 -338 0
-93 -373 0
-93 -408 0
-93 -443 0
-93 -478 0
-93 -513 0
-93 -548 0
-93 -583 0
-93 -618 0
-93 -653 0
-93 -688 0
-93 -723 0
-93 -758 0
-93 -793 0
-93 -828 0
-93 -863 0
-93 -898 0
-93 -933 0
-93 -968 0
-93 -1003 0
-93 -1038 0
-93 -1073 0
-93 -1108 0
-93 -1143 0
-93 -1178 0
-93 -1213 0
-93 -1248 0
-128 -163 0
-128 -198 0
-128 -233 0
-128 -268 0
-128 -303 0
-128 -338 0
-128 -373 0
-128 -408 0
-128 -443 0
-128 -478 0
-128 -513 0
-128 -548 0
-128 -583 0
-128 -618 0
-128 -653 0
-128 -688 0
-128 -723 0
-128 -758 0
-128 -793 0
-128 -828 0
-128 -863 0
-128 -898 0
-128 -933 0
-128 -968 0
-128 -1003 0
-128 -1038 0
-128 -1073 0
-128 -1108 0
-128 -1143 0
-128 -1178 0
-128 -1213 0
-128 -1248 0
-163 -198 0
-163 -233 0
-163 -268 0
-163 -303 0
-163 -338 0
-163 -373 0
-163 -408 0
-163 -443 0
-163 -478 0
-163 -513 0
-163 -548 0
-163 -583 0
-163 -618 0
-163 -653 0
-163 -688 0
-163 -723 0
-163 -758 0
-163 -793 0
-163 -828 0
-163 -863 0
-163 -898 0
-163 -933 0
-163 -968 0
-163 -1003 0
-163 -1038 0
-163 -1073 0
-163 -1108 0
-163 -1143 0
-163 -1178 0
-163 -1213 0
-163 -1248 0
-198 -233 0
-198 -268 0
-198 -303 0
-198 -338 0
-198 -373 0
-198 -408 0
-198 -443 0
-198 -478 0
-198 -513 0
-198 -548 0
-198 -583 0
-198 -618 0
-198 -653 0
-198 -688 0
-198 -723 0
-198 -758 0
-198 -793 0
-198 -828 0
-198 -863 0
-198 -898 0
-198 -933 0
-198 -968 0
-198 -1003 0
-198 -1038 0
-198 -1073 0
-198 -1108 0
-198 -1143 0
-198 -1178 0
-198 -1213 0
-198 -1248 0
-233 -268 0
-233 -303 0
-233 -338 0
-233 -373 0
-233 -408 0
-233 -443 0
-233 -478 0
-233 -513 0
-233 -548 0
-233 -583 0
-233 -618 0
-233 -653 0
-233 -688 0
-233 -723 0
-233 -758 0
-233 -793 0
-233 -828 0
-233 -863 0
-233 -898 0
-233 -933 0
-233 -968 0
-233 -1003 0
-233 -1038 0
-233 -1073 0
-233 -1108 0
-233 -1143 0
-233 -1178 0
-233 -1213 0
-233 -1248 0
-268 -303 0
-268 -338 0
-268 -373 0
-268 -408 0
-268 -443 0
-268 -478 0
-268 -513 0
-268 -548 0
-268 -583 0
-268 -618 0
-268 -653 0
-268 -688 0
-268 -723 0
-268 -758 0
-268 -793 0
-268 -828 0
-268 -863 0
-268 -898 0
-268 -933 0
-268 -968 0
-268 -1003 0
-268 -1038 0
-268 -1073 0
-268 -1108 0
-268 -1143 0
-268 -1178 0
-268 -1213 0
-268 -1248 0
-303 -338 0
-303 -373 0
-303 -408 0
-303 -443 0
-303 -478 0
-303 -513 0
-303 -548 0
-303 -583 0
-303 -618 0
-303 -653 0
-303 -688 0
-303 -723 0
-303 -758 0
-303 -793 0
-303 -828 0
-303 -863 0
-303 -898 0
-303 -933 0
-303 -968 0
-303 -1003 0
-303 -1038 0
-303 -1073 0
-303 -1108 0
-303 -1143 0
-303 -1178 0
-303 -1213 0
-303 -1248 0
-338 -373 0
-338 -408 0
-338 -443 0
-338 -478 0
-338 -513 0
-338 -548 0
-338 -583 0
-338 -618 0
-338 -653 0
-338 -688 0
-338 -723 0
-338 -758 0
-338 -793 0
-338 -828 0
-338 -863 0
-338 -898 0
-338 -933 0
-338 -968 0
-338 -1003 0
-338 -1038 0
-338 -1073 0
-338 -1108 0
-338 -1143 0
-338 -1178 0
-338 -1213 0
-338 -1248 0
-373 -408 0
-373 -443 0
-373 -478 0
-373 -513 0
-373 -548 0
-373 -583 0
-373 -618 0
-373 -653 0
-373 -688 0
-373 -723 0
-373 -758 0
-373 -793 0
-373 -828 0
-373 -863 0
-373 -898 0
-373 -933 0
-373 -968 0
-373 -1003 0
-373 -1038 0
-373 -1073 0
-373 -1108 0
-373 -1143 0
-373 -1178 0
-373 -1213 0
-373 -1248 0
-408 -443 0
-408 -478 0
-408 -513 0
-408 -548 0
-408 -583 0
-408 -618 0
-408 -653 0
-408 -688 0
-408 -723 0
-408 -758 0
-408 -793 0
-408 -828 0
-408 -863 0
-408 -898 0
-408 -933 0
-408 -968 0
-408 -1003 0
-408 -1038 0
-408 -1073 0
-408 -1108 0
-408 -1143 0
-408 -1178 0
-408 -1213 0
-408 -1248 0
-443 -478 0
-443 -513 0
-443 -548 0
-443 -583 0
-443 -618 0
-443 -653 0
-443 -688 0
-443 -723 0
-443 -758 0
-443 -793 0
-443 -828 0
-443 -863 0
-443 -898 0
-443 -933 0
-443 -968 0
-443 -1003 0
-443 -1038 0
-443 -1073 0
-443 -1108 0
-443 -1143 0
-443 -1178 0
-443 -1213 0
-443 -1248 0
-478 -513 0
-478 -548 0
-478 -583 0
-478 -618 0
-478 -653 0
-478 -688 0
-478 -723 0
-478 -758 0
-478 -793 0
-478 -828 0
-478 -863 0
-478 -898 0
-478 -933 0
-478 -968 0
-478 -1003 0
-478 -1038 0
-478 -1073 0
-478 -1108 0
-478 -1143 0
-478 -1178 0
-478 -1213 0
-478 -1248 0
-513 -548 0
-513 -583 0
-513 -618 0
-513 -653 0
-513 -688 0
-513 -723 0
-513 -758 0
-513 -793 0
-513 -828 0
-513 -863 0
-513 -898 0
-513 -933 0
-513 -968 0
-513 -1003 0
-513 -1038 0
-513 -1073 0
-513 -1108 0
-513 -1143 0
-513 -1178 0
-513 -1213 0
-513 -1248 0
-548 -583 0
-548 -618 0
-548 -653 0
-548 -688 0
-548 -723 0
-548 -758 0
-548 -793 0
-548 -828 0
-548 -863 0
-548 -898 0
-548 -933 0
-548 -968 0
-548 -1003 0
-548 -1038 0
-548 -1073 0
-548 -1108 0
-548 -1143 0
-548 -1178 0
-548 -1213 0
-548 -1248 0
-583 -618 0
-583 -653 0
-583 -688 0
-583 -723 0
-583 -758 0
-583 -793 0
-583 -828 0
-583 -863 0
-583 -898 0
-583 -933 0
-583 -968 0
-583 -1003 0
-583 -1038 0
-583 -1073 0
-583 -1108 0
-583 -1143 0
-583 -1178 0
-583 -1213 0
-583 -1248 0
-618 -653 0
-618 -688 0
-618 -723 0
-618 -758 0
-618 -793 0
-618 -828 0
-618 -863 0
-618 -898 0
-618 -933 0
-618 -968 0
-618 -1003 0
-618 -1038 0
-618 -1073 0
-618 -1108 0
-618 -1143 0
-618 -1178 0
-618 -1213 0
-618 -1248 0
-653 -688 0
-653 -723 0
-653 -758 0
-653 -793 0
-653 -828 0
-653 -863 0
-653 -898 0
-653 -933 0
-653 -968 0
-653 -1003 0
-653 -1038 0
-653 -1073 0
-653 -1108 0
-653 -1143 0
-653 -1178 0
-653 -1213 0
-653 -1248 0
-688 -723 0
-688 -758 0
-688 -793 0
-688 -828 0
-688 -863 0
-688 -898 0
-688 -933 0
-688 -968 0
-688 -1003 0
-688 -1038 0
-688 -1073 0
-688 -1108 0
-688 -1143 0
-688 -1178 0
-688 -1213 0
-688 -1248 0
-723 -758 0
-723 -793 0
-723 -828 0
-723 -863 0
-723 -898 0
-723 -933 0
-723 -968 0
-723 -1003 0
-723 -1038 0
-723 -1073 0
-723 -1108 0
-723 -1143 0
-723 -1178 0
-723 -1213 0
-723 -1248 0
-758 -793 0
-758 -828 0
-758 -863 0
-758 -898 0
-758 -933 0
-758 -968 0
-758 -1003 0
-758 -1038 0
-758 -1073 0
-758 -1108 0
-758 -1143 0
-758 -1178 0
-758 -1213 0
-758 -1248 0
-793 -828 0
-793 -863 0
-793 -898 0
-793 -933 0
-793 -968 0
-793 -1003 0
-793 -1038 0
-793 -1073 0
-793 -1108 0
-793 -1143 0
-793 -1178 0
-793 -1213 0
-793 -1248 0
-828 -863 0
-828 -898 0
-828 -933 0
-828 -968 0
-828 -1003 0
-828 -1038 0
-828 -1073 0
-828 -1108 0
-828 -1143 0
-828 -1178 0
-828 -1213 0
-828 -1248 0
-863 -898 0
-863 -933 0
-863 -968 0
-863 -1003 0
-863 -1038 0
-863 -1073 0
-863 -1108 0
-863 -1143 0
-863 -1178 0
-863 -1213 0
-863 -1248 0
-898 -933 0
-898 -968 0
-898 -1003 0
-898 -1038 0
-898 -1073 0
-898 -1108 0
-898 -1143 0
-898 -1178 0
-898 -1213 0
-898 -1248 0
-933 -968 0
-933 -1003 0
-933 -1038 0
-933 -1073 0
-933 -1108 0
-933 -1143 0
-933 -1178 0
-933 -1213 0
-933 -1248 0
-968 -1003 0
-968 -1038 0
-968 -1073 0
-968 -1108 0
-968 -1143 0
-968 -1178 0
-968 -1213 0
-968 -1248 0
-1003 -1038 0
-1003 -1073 0
-1003 -1108 0
-1003 -1143 0
-1003 -1178 0
-1003 -1213 0
-1003 -1248 0
-1038 -1073 0
-1038 -1108 0
-1038 -1143 0
-1038 -1178 0
-1038 -1213 0
-1038 -1248 0
-1073 -1108 0
-1073 -1143 0
-1073 -1178 0
-1073 -1213 0
-1073 -1248 0
-1108 -1143 0
-1108 -1178 0
-1108 -1213 0
-1108 -1248 0
-1143 -1178 0
-1143 -1213 0
-1143 -1248 0
-1178 -1213 0
-1178 -1248 0
-1213 -1248 0
-24 -59 0
-24 -94 0
-24 -129 0
-24 -164 0
-24 -199 0
-24 -234 0
-24 -269 0
-24 -304 0
-24 -339 0
-24 -374 0
-24 -409 0
-24 -444 0
-24 -479 0
-24 -514 0
-24 -549 0
-24 -584 0
-24 -619 0
-24 -654 0
-24 -689 0
-24 -724 0
-24 -759 0
-24 -794 0
-24 -829 0
-24 -864 0
-24 -899 0
-24 -934 0
-24 -969 0
-24 -1004 0
-24 -1039 0
-24 -1074 0
-24 -1109 0
-24 -1144 0
-24 -1179 0
-24 -1214 0
-24 -1249 0
-59 -94 0
-59 -129 0
-59 -164 0
-59 -199 0
-59 -234 0
-59 -269 0
-59 -304 0
-59 -339 0
-59 -374 0
-59 -409 0
-59 -444 0
-59 -479 0
-59 -514 0
-59 -549 0
-59 -584 0
-59 -619 0
-59 -654 0
-59 -689 0
-59 -724 0
-59 -759 0
-59 -794 0
-59 -829 0
-59 -864 0
-59 -899 0
-59 -934 0
-59 -969 0
-59 -1004 0
-59 -1039 0
-59 -1074 0
-59 -1109 0
-59 -1144 0
-59 -1179 0
-59 -1214 0
-59 -1249 0
-94 -129 0
-94 -164 0
-94 -199 0
-94 -234 0
-94 -269 0
-94 -304 0
-94 -339 0
-94 -374 0
-94 -409 0
-94 -444 0
-94 -479 0
-94 -514 0
-94 -549 0
-94 -584 0
-94 -619 0
-94 -654 0
-94 -689 0
-94 -724 0
-94 -759 0
-94 -794 0
-94 -829 0
-94 -864 0
-94 -899 0
-94 -934 0
-94 -969 0
-94 -1004 0
-94 -1039 0
-94 -1074 0
-94 -1109 0
-94 -1144 0
-94 -1179 0
-94 -1214 0
-94 -1249 0
-129 -164 0
-129 -199 0
-129 -234 0
-129 -269 0
-129 -304 0
-129 -339 0
-129 -374 0
-129 -409 0
-129 -444 0
-129 -479 0
-129 -514 0
-129 -549 0
-129 -584 0
-129 -619 0
-129 -654 0
-129 -689 0
-129 -724 0
-129 -759 0
-129 -794 0
-129 -829 0
-129 -864 0
-129 -899 0
-129 -934 0
-129 -969 0
-129 -1004 0
-129 -1039 0
-129 -1074 0
-129 -1109 0
-129 -1144 0
-129 -1179 0
-129 -1214 0
-129 -1249 0
-164 -199 0
-164 -234 0
-164 -269 0
-164 -304 0
-164 -339 0
-164 -374 0
-164 -409 0
-164 -444 0
-164 -479 0
-164 -514 0
-164 -549 0
-164 -584 0
-164 -619 0
-164 -654 0
-164 -689 0
-164 -724 0
-164 -759 0
-164 -794 0
-164 -829 0
-164 -864 0
-164 -899 0
-164 -934 0
-164 -969 0
-164 -1004 0
-164 -1039 0
-164 -1074 0
-164 -1109 0
-164 -1144 0
-164 -1179 0
-164 -1214 0
-164 -1249 0
-199 -234 0
-199 -269 0
-199 -304 0
-199 -339 0
-199 -374 0
-199 -409 0
-199 -444 0
-199 -479 0
-199 -514 0
-199 -549 0
-199 -584 0
-199 -619 0
-199 -654 0
-199 -689 0
-199 -724 0
-199 -759 0
-199 -794 0
-199 -829 0
-199 -864 0
-199 -899 0
-199 -934 0
-199 -969 0
-199 -1004 0
-199 -1039 0
-199 -1074 0
-199 -1109 0
-199 -1144 0
-199 -1179 0
-199 -1214 0
-199 -1249 0
-234 -269 0
-234 -304 0
-234 -339 0
-234 -374 0
-234 -409 0
-234 -444 0
-234 -479 0
-234 -514 0
-234 -549 0
-234 -584 0
-234 -619 0
-234 -654 0
-234 -689 0
-234 -724 0
-234 -759 0
-234 -794 0
-234 -829 0
-234 -864 0
-234 -899 0
-234 -934 0
-234 -969 0
-234 -1004 0
-234 -1039 0
-234 -1074 0
-234 -1109 0
-234 -1144 0
-234 -1179 0
-234 -1214 0
-234 -1249 0
-269 -304 0
-269 -339 0
-269 -374 0
-269 -409 0
-269 -444 0
-269 -479 0
-269 -514 0
-269 -549 0
-269 -584 0
-269 -619 0
-269 -654 0
-269 -689 0
-269 -724 0
-269 -759 0
-269 -794 0
-269 -829 0
-269 -864 0
-269 -899 0
-269 -934 0
-269 -969 0
-269 -1004 0
-269 -1039 0
-269 -1074 0
-269 -1109 0
-269 -1144 0
-269 -1179 0
-269 -1214 0
-269 -1249 0
-304 -339 0
-304 -374 0
-304 -409 0
-304 -444 0
-304 -479 0
-304 -514 0
-304 -549 0
-304 -584 0
-304 -619 0
-304 -654 0
-304 -689 0
-304 -724 0
-304 -759 0
-304 -794 0
-304 -829 0
-304 -864 0
-304 -899 0
-304 -934 0
-304 -969 0
-304 -1004 0
-304 -1039 0
-304 -1074 0
-304 -1109 0
-304 -1144 0
-304 -1179 0
-304 -1214 0
-304 -1249 0
-339 -374 0
-339 -409 0
-339 -444 0
-339 -479 0
-339 -514 0
-339 -549 0
-339 -584 0
-339 -619 0
-339 -654 0
-339 -689 0
-339 -724 0
-339 -759 0
-339 -794 0
-339 -829 0
-339 -864 0
-339 -899 0
-339 -934 0
-339 -969 0
-339 -1004 0
-339 -1039 0
-339 -1074 0
-339 -1109 0
-339 -1144 0
-339 -1179 0
-339 -1214 0
-339 -1249 0
-374 -409 0
-374 -444 0
-374 -479 0
-374 -514 0
-374 -549 0
-374 -584 0
-374 -619 0
-374 -654 0
-374 -689 0
-374 -724 0
-374 -759 0
-374 -794 0
-374 -829 0
-374 -864 0
-374 -899 0
-374 -934 0
-374 -969 0
-374 -1004 0
-374 -1039 0
-374 -1074 0
-374 -1109 0
-374 -1144 0
-374 -1179 0
-374 -1214 0
-374 -1249 0
-409 -444 0
-409 -479 0
-409 -514 0
-409 -549 0
-409 -584 0
-409 -619 0
-409 -654 0
-409 -689 0
-409 -724 0
-409 -759 0
-409 -794 0
-409 -829 0
-409 -864 0
-409 -899 0
-409 -934 0
-409 -969 0
-409 -1004 0
-409 -1039 0
-409 -1074 0
-409 -1109 0
-409 -1144 0
-409 -1179 0
-409 -1214 0
-409 -1249 0
-444 -479 0
-444 -514 0
-444 -549 0
-444 -584 0
-444 -619 0
-444 -654 0
-444 -689 0
-444 -724 0
-444 -759 0
-444 -794 0
-444 -829 0
-444 -864 0
-444 -899 0
-444 -934 0
-444 -969 0
-444 -1004 0
-444 -1039 0
-444 -1074 0
-444 -1109 0
-444 -1144 0
-444 -1179 0
-444 -1214 0
-444 -1249 0
-479 -514 0
-479 -549 0
-479 -584 0
-479 -619 0
-479 -654 0
-479 -689 0
-479 -724 0
-479 -759 0
-479 -794 0
-479 -829 0
-479 -864 0
-479 -899 0
-479 -934 0
-479 -969 0
-479 -1004 0
-479 -1039 0
-479 -1074 0
-479 -1109 0
-479 -1144 0
-479 -1179 0
-479 -1214 0
-479 -1249 0
-514 -549 0
-514 -584 0
-514 -619 0
-514 -654 0
-514 -689 0
-514 -724 0
-514 -759 0
-514 -794 0
-514 -829 0
-514 -864 0
-514 -899 0
-514 -934 0
-514 -969 0
-514 -1004 0
-514 -1039 0
-514 -1074 0
-514 -1109 0
-514 -1144 0
-514 -1179 0
-514 -1214 0
-514 -1249 0
-549 -584 0
-549 -619 0
-549 -654 0
-549 -689 0
-549 -724 0
-549 -759 0
-549 -794 0
-549 -829 0
-549 -864 0
-549 -899 0
-549 -934 0
-549 -969 0
-549 -1004 0
-549 -1039 0
-549 -1074 0
-549 -1109 0
-549 -1144 0
-549 -1179 0
-549 -1214 0
-549 -1249 0
-584 -619 0
-584 -654 0
-584 -689 0
-584 -724 0
-584 -759 0
-584 -794 0
-584 -829 0
-584 -864 0
-584 -899 0
-584 -934 0
-584 -969 0
-584 -1004 0
-584 -1039 0
-584 -1074 0
-584 -1109 0
-584 -1144 0
-584 -1179 0
-584 -1214 0
-584 -1249 0
-619 -654 0
-619 -689 0
-619 -724 0
-619 -759 0
-619 -794 0
-619 -829 0
-619 -864 0
-619 -899 0
-619 -934 0
-619 -969 0
-619 -1004 0
-619 -1039 0
-619 -1074 0
-619 -1109 0
-619 -1144 0
-619 -1179 0
-619 -1214 0
-619 -1249 0
-654 -689 0
-654 -724 0
-654 -759 0
-654 -794 0
-654 -829 0
-654 -864 0
-654 -899 0
-654 -934 0
-654 -969 0
-654 -1004 0
-654 -1039 0
-654 -1074 0
-654 -1109 0
-654 -1144 0
-654 -1179 0
-654 -1214 0
-654 -1249 0
-689 -724 0
-689 -759 0
-689 -794 0
-689 -829 0
-689 -864 0
-689 -899 0
-689 -934 0
-689 -969 0
-689 -1004 0
-689 -1039 0
-689 -1074 0
-689 -1109 0
-689 -1144 0
-689 -1179 0
-689 -1214 0
-689 -1249 0
-724 -759 0
-724 -794 0
-724 -829 0
-724 -864 0
-724 -899 0
-724 -934 0
-724 -969 0
-724 -1004 0
-724 -1039 0
-724 -1074 0
-724 -1109 0
-724 -1144 0
-724 -1179 0
-724 -1214 0
-724 -1249 0
-759 -794 0
-759 -829 0
-759 -864 0
-759 -899 0
-759 -934 0
-759 -969 0
-759 -1004 0
-759 -1039 0
-759 -1074 0
-759 -1109 0
-759 -1144 0
-759 -1179 0
-759 -1214 0
-759 -1249 0
-794 -829 0
-794 -864 0
-794 -899 0
-794 -934 0
-794 -969 0
-794 -1004 0
-794 -1039 0
-794 -1074 0
-794 -1109 0
-794 -1144 0
-794 -1179 0
-794 -1214 0
-794 -1249 0
-829 -864 0
-829 -899 0
-829 -934 0
-829 -969 0
-829 -1004 0
-829 -1039 0
-829 -1074 0
-829 -1109 0
-829 -1144 0
-829 -1179 0
-829 -1214 0
-829 -1249 0
-864 -899 0
-864 -934 0
-864 -969 0
-864 -1004 0
-864 -1039 0
-864 -1074 0
-864 -1109 0
-864 -1144 0
-864 -1179 0
-864 -1214 0
-864 -1249 0
-899 -934 0
-899 -969 0
-899 -1004 0
-899 -1039 0
-899 -1074 0
-899 -1109 0
-899 -1144 0
-899 -1179 0
-899 -1214 0
-899 -1249 0
-934 -969 0
-934 -1004 0
-934 -1039 0
-934 -1074 0
-934 -1109 0
-934 -1144 0
-934 -1179 0
-934 -1214 0
-934 -1249 0
-969 -1004 0
-969 -1039 0
-969 -1074 0
-969 -1109 0
-969 -1144 0
-969 -1179 0
-969 -1214 0
-969 -1249 0
-1004 -1039 0
-1004 -1074 0
-1004 -1109 0
-1004 -1144 0
-1004 -1179 0
-1004 -1214 0
-1004 -1249 0
-1039 -1074 0
-1039 -1109 0
-1039 -1144 0
-1039 -1179 0
-1039 -1214 0
-1039 -1249 0
-1074 -1109 0
-1074 -1144 0
-1074 -1179 0
-1074 -1214 0
-1074 -1249 0
-1109 -1144 0
-1109 -1179 0
-1109 -1214 0
-1109 -1249 0
-1144 -1179 0
-1144 -1214 0
-1144 -1249 0
-1179 -1214 0
-1179 -1249 0
-1214 -1249 0
-25 -60 0
-25 -95 0
-25 -130 0
-25 -165 0
-25 -200 0
-25 -235 0
-25 -270 0
-25 -305 0
-25 -340 0
-25 -375 0
-25 -410 0
-25 -445 0
-25 -480 0
-25 -515 0
-25 -550 0
-25 -585 0
-25 -620 0
-25 -655 0
-25 -690 0
-25 -725 0
-25 -760 0
-25 -795 0
-25 -830 0
-25 -865 0
-25 -900 0
-25 -935 0
-25 -970 0
-25 -1005 0
-25 -1040 0
-25 -1075 0
-25 -1110 0
-25 -1145 0
-25 -1180 0
-25 -1215 0
-25 -1250 0
-60 -95 0
-60 -130 0
-60 -165 0
-60 -200 0
-60 -235 0
-60 -270 0
-60 -305 0
-60 -340 0
-60 -375 0
-60 -410 0
-60 -445 0
-60 -480 0
-60 -515 0
-60 -550 0
-60 -585 0
-60 -620 0
-60 -655 0
-60 -690 0
-60 -725 0
-60 -760 0
-60 -795 0
-60 -830 0
-60 -865 0
-60 -900 0
-60 -935 0
-60 -970 0
-60 -1005 0
-60 -1040 0
-60 -1075 0
-60 -1110 0
-60 -1145 0
-60 -1180 0
-60 -1215 0
-60 -1250 0
-95 -130 0
-95 -165 0
-95 -200 0
-95 -235 0
-95 -270 0
-95 -305 0
-95 -340 0
-95 -375 0
-95 -410 0
-95 -445 0
-95 -480 0
-95 -515 0
-95 -550 0
-95 -585 0
-95 -620 0
-95 -655 0
-95 -690 0
-95 -725 0
-95 -760 0
-95 -795 0
-95 -830 0
-95 -865 0
-95 -900 0
-95 -935 0
-95 -970 0
-95 -1005 0
-95 -1040 0
-95 -1075 0
-95 -1110 0
-95 -1145 0
-95 -1180 0
-95 -1215 0
-95 -1250 0
-130 -165 0
-130 -200 0
-130 -235 0
-130 -270 0
-130 -305 0
-130 -340 0
-130 -375 0
-130 -410 0
-130 -445 0
-130 -480 0
-130 -515 0
-130 -550 0
-130 -585 0
-130 -620 0
-130 -655 0
-130 -690 0
-130 -725 0
-130 -760 0
-130 -795 0
-130 -830 0
-130 -865 0
-130 -900 0
-130 -935 0
-130 -970 0
-130 -1005 0
-130 -1040 0
-130 -1075 0
-130 -1110 0
-130 -1145 0
-130 -1180 0
-130 -1215 0
-130 -1250 0
-165 -200 0
-165 -235 0
-165 -270 0
-165 -305 0
-165 -340 0
-165 -375 0
-165 -410 0
-165 -445 0
-165 -480 0
-165 -515 0
-165 -550 0
-165 -585 0
-165 -620 0
-165 -655 0
-165 -690 0
-165 -725 0
-165 -760 0
-165 -795 0
-165 -830 0
-165 -865 0
-165 -900 0
-165 -935 0
-165 -970 0
-165 -1005 0
-165 -1040 0
-165 -1075 0
-165 -1110 0
-165 -1145 0
-165 -1180 0
-165 -1215 0
-165 -1250 0
-200 -235 0
-200 -270 0
-200 -305 0
-200 -340 0
-200 -375 0
-200 -410 0
-200 -445 0
-200 -480 0
-200 -515 0
-200 -550 0
-200 -585 0
-200 -620 0
-200 -655 0
-200 -690 0
-200 -725 0
-200 -760 0
-200 -795 0
-200 -830 0
-200 -865 0
-200 -900 0
-200 -935 0
-200 -970 0
-200 -1005 0
-200 -1040 0
-200 -1075 0
-200 -1110 0
-200 -1145 0
-200 -1180 0
-200 -1215 0
-200 -1250 0
-235 -270 0
-235 -305 0
-235 -340 0
-235 -375 0
-235 -410 0
-235 -445 0
-235 -480 0
-235 -515 0
-235 -550 0
-235 -585 0
-235 -620 0
-235 -655 0
-235 -690 0
-235 -725 0
-235 -760 0
-235 -795 0
-235 -830 0
-235 -865 0
-235 -900 0
-235 -935 0
-235 -970 0
-235 -1005 0
-235 -1040 0
-235 -1075 0
-235 -1110 0
-235 -1145 0
-235 -1180 0
-235 -1215 0
-235 -1250 0
-270 -305 0
-270 -340 0
-270 -375 0
-270 -410 0
-270 -445 0
-270 -480 0
-270 -515 0
-270 -550 0
-270 -585 0
-270 -620 0
-270 -655 0
-270 -690 0
-270 -725 0
-270 -760 0
-270 -795 0
-270 -830 0
-270 -865 0
-270 -900 0
-270 -935 0
-270 -970 0
-270 -1005 0
-270 -1040 0
-270 -1075 0
-270 -1110 0
-270 -1145 0
-270 -1180 0
-270 -1215 0
-270 -1250 0
-305 -340 0
-305 -375 0
-305 -410 0
-305 -445 0
-305 -480 0
-305 -515 0
-305 -550 0
-305 -585 0
-305 -620 0
-305 -655 0
-305 -690 0
-305 -725 0
-305 -760 0
-305 -795 0
-305 -830 0
-305 -865 0
-305 -900 0
-305 -935 0
-305 -970 0
-305 -1005 0
-305 -1040 0
-305 -1075 0
-305 -1110 0
-305 -1145 0
-305 -1180 0
-305 -1215 0
-305 -1250 0
-340 -375 0
-340 -410 0
-340 -445 0
-340 -480 0
-340 -515 0
-340 -550 0
-340 -585 0
-340 -620 0
-340 -655 0
-340 -690 0
-340 -725 0
-340 -760 0
-340 -795 0
-340 -830 0
-340 -865 0
-340 -900 0
-340 -935 0
-340 -970 0
-340 -1005 0
-340 -1040 0
-340 -1075 0
-340 -1110 0
-340 -1145 0
-340 -1180 0
-340 -1215 0
-340 -1250 0
-375 -410 0
-375 -445 0
-375 -480 0
-375 -515 0
-375 -550 0
-375 -585 0
-375 -620 0
-375 -655 0
-375 -690 0
-375 -725 0
-375 -760 0
-375 -795 0
-375 -830 0
-375 -865 0
-375 -900 0
-375 -935 0
-375 -970 0
-375 -1005 0
-375 -1040 0
-375 -1075 0
-375 -1110 0
-375 -1145 0
-375 -1180 0
-375 -1215 0
-375 -1250 0
-410 -445 0
-410 -480 0
-410 -515 0
-410 -550 0
-410 -585 0
-410 -620 0
-410 -655 0
-410 -690 0
-410 -725 0
-410 -760 0
-410 -795 0
-410 -830 0
-410 -865 0
-410 -900 0
-410 -935 0
-410 -970 0
-410 -1005 0
-410 -1040 0
-410 -1075 0
-410 -1110 0
-410 -1145 0
-410 -1180 0
-410 -1215 0
-410 -1250 0
-445 -480 0
-445 -515 0
-445 -550 0
-445 -585 0
-445 -620 0
-445 -655 0
-445 -690 0
-445 -725 0
-445 -760 0
-445 -795 0
-445 -830 0
-445 -865 0
-445 -900 0
-445 -935 0
-445 -970 0
-445 -1005 0
-445 -1040 0
-445 -1075 0
-445 -1110 0
-445 -1145 0
-445 -1180 0
-445 -1215 0
-445 -1250 0
-480 -515 0
-480 -550 0
-480 -585 0
-480 -620 0
-480 -655 0
-480 -690 0
-480 -725 0
-480 -760 0
-480 -795 0
-480 -830 0
-480 -865 0
-480 -900 0
-480 -935 0
-480 -970 0
-480 -1005 0
-480 -1040 0
-480 -1075 0
-480 -1110 0
-480 -1145 0
-480 -1180 0
-480 -1215 0
-480 -1250 0
-515 -550 0
-515 -585 0
-515 -620 0
-515 -655 0
-515 -690 0
-515 -725 0
-515 -760 0
-515 -795 0
-515 -830 0
-515 -865 0
-515 -900 0
-515 -935 0
-515 -970 0
-515 -1005 0
-515 -1040 0
-515 -1075 0
-515 -1110 0
-515 -1145 0
-515 -1180 0
-515 -1215 0
-515 -1250 0
-550 -585 0
-550 -620 0
-550 -655 0
-550 -690 0
-550 -725 0
-550 -760 0
-550 -795 0
-550 -830 0
-550 -865 0
-550 -900 0
-550 -935 0
-550 -970 0
-550 -1005 0
-550 -1040 0
-550 -1075 0
-550 -1110 0
-550 -1145 0
-550 -1180 0
-550 -1215 0
-550 -1250 0
-585 -620 0
-585 -655 0
-585 -690 0
-585 -725 0
-585 -760 0
-585 -795 0
-585 -830 0
-585 -865 0
-585 -900 0
-585 -935 0
-585 -970 0
-585 -1005 0
-585 -1040 0
-585 -1075 0
-585 -1110 0
-585 -1145 0
-585 -1180 0
-585 -1215 0
-585 -1250 0
-620 -655 0
-620 -690 0
-620 -725 0
-620 -760 0
-620 -795 0
-620 -830 0
-620 -865 0
-620 -900 0
-620 -935 0
-620 -970 0
-620 -1005 0
-620 -1040 0
-620 -1075 0
-620 -1110 0
-620 -1145 0
-620 -1180 0
-620 -1215 0
-620 -1250 0
-655 -690 0
-655 -725 0
-655 -760 0
-655 -795 0
-655 -830 0
-655 -865 0
-655 -900 0
-655 -935 0
-655 -970 0
-655 -1005 0
-655 -1040 0
-655 -1075 0
-655 -1110 0
-655 -1145 0
-655 -1180 0
-655 -1215 0
-655 -1250 0
-690 -725 0
-690 -760 0
-690 -795 0
-690 -830 0
-690 -865 0
-690 -900 0
-690 -935 0
-690 -970 0
-690 -1005 0
-690 -1040 0
-690 -1075 0
-690 -1110 0
-690 -1145 0
-690 -1180 0
-690 -1215 0
-690 -1250 0
-725 -760 0
-725 -795 0
-725 -830 0
-725 -865 0
-725 -900 0
-725 -935 0
-725 -970 0
-725 -1005 0
-725 -1040 0
-725 -1075 0
-725 -1110 0
-725 -1145 0
-725 -1180 0
-725 -1215 0
-725 -1250 0
-760 -795 0
-760 -830 0
-760 -865 0
-760 -900 0
-760 -935 0
-760 -970 0
-760 -1005 0
-760 -1040 0
-760 -1075 0
-760 -1110 0
-760 -1145 0
-760 -1180 0
-760 -1215 0
-760 -1250 0
-795 -830 0
-795 -865 0
-795 -900 0
-795 -935 0
-795 -970 0
-795 -1005 0
-795 -1040 0
-795 -1075 0
-795 -1110 0
-795 -1145 0
-795 -1180 0
-795 -1215 0
-795 -1250 0
-830 -865 0
-830 -900 0
-830 -935 0
-830 -970 0
-830 -1005 0
-830 -1040 0
-830 -1075 0
-830 -1110 0
-830 -1145 0
-830 -1180 0
-830 -1215 0
-830 -1250 0
-865 -900 0
-865 -935 0
-865 -970 0
-865 -1005 0
-865 -1040 0
-865 -1075 0
-865 -1110 0
-865 -1145 0
-865 -1180 0
-865 -1215 0
-865 -1250 0
-900 -935 0
-900 -970 0
-900 -1005 0
-900 -1040 0
-900 -1075 0
-900 -1110 0
-900 -1145 0
-900 -1180 0
-900 -1215 0
-900 -1250 0
-935 -970 0
-935 -1005 0
-935 -1040 0
-935 -1075 0
-935 -1110 0
-935 -1145 0
-935 -1180 0
-935 -1215 0
-935 -1250 0
-970 -1005 0
-970 -1040 0
-970 -1075 0
-970 -1110 0
-970 -1145 0
-970 -1180 0
-970 -1215 0
-970 -1250 0
-1005 -1040 0
-1005 -1075 0
-1005 -1110 0
-1005 -1145 0
-1005 -1180 0
-1005 -1215 0
-1005 -1250 0
-1040 -1075 0
-1040 -1110 0
-1040 -1145 0
-1040 -1180 0
-1040 -1215 0
-1040 -1250 0
-1075 -1110 0
-1075 -1145 0
-1075 -1180 0
-1075 -1215 0
-1075 -1250 0
-1110 -1145 0
-1110 -1180 0
-1110 -1215 0
-1110 -1250 0
-1145 -1180 0
-1145 -1215 0
-1145 -1250 0
-1180 -1215 0
-1180 -1250 0
-1215 -1250 0
-26 -61 0
-26 -96 0
-26 -131 0
-26 -166 0
-26 -201 0
-26 -236 0
-26 -271 0
-26 -306 0
-26 -341 0
-26 -376 0
-26 -411 0
-26 -446 0
-26 -481 0
-26 -516 0
-26 -551 0
-26 -586 0
-26 -621 0
-26 -656 0
-26 -691 0
-26 -726 0
-26 -761 0
-26 -796 0
-26 -831 0
-26 -866 0
-26 -901 0
-26 -936 0
-26 -971 0
-26 -1006 0
-26 -1041 0
-26 -1076 0
-26 -1111 0
-26 -1146 0
-26 -1181 0
-26 -1216 0
-26 -1251 0
-61 -96 0
-61 -131 0
-61 -166 0
-61 -201 0
-61 -236 0
-61 -271 0
-61 -306 0
-61 -341 0
-61 -376 0
-61 -411 0
-61 -446 0
-61 -481 0
-61 -516 0
-61 -551 0
-61 -586 0
-61 -621 0
-61 -656 0
-61 -691 0
-61 -726 0
-61 -761 0
-61 -796 0
-61 -831 0
-61 -866 0
-61 -901 0
-61 -936 0
-61 -971 0
-61 -1006 0
-61 -1041 0
-61 -1076 0
-61 -1111 0
-61 -1146 0
-61 -1181 0
-61 -1216 0
-61 -1251 0
-96 -131 0
-96 -166 0
-96 -201 0
-96 -236 0
-96 -271 0
-96 -306 0
-96 -341 0
-96 -376 0
-96 -411 0
-96 -446 0
-96 -481 0
-96 -516 0
-96 -551 0
-96 -586 0
-96 -621 0
-96 -656 0
-96 -691 0
-96 -726 0
-96 -761 0
-96 -796 0
-96 -831 0
-96 -866 0
-96 -901 0
-96 -936 0
-96 -971 0
-96 -1006 0
-96 -1041 0
-96 -1076 0
-96 -1111 0
-96 -1146 0
-96 -1181 0
-96 -1216 0
-96 -1251 0
-131 -166 0
-131 -201 0
-131 -236 0
-131 -271 0
-131 -306 0
-131 -341 0
-131 -376 0
-131 -411 0
-131 -446 0
-131 -481 0
-131 -516 0
-131 -551 0
-131 -586 0
-131 -621 0
-131 -656 0
-131 -691 0
-131 -726 0
-131 -761 0
-131 -796 0
-131 -831 0
-131 -866 0
-131 -901 0
-131 -936 0
-131 -971 0
-131 -1006 0
-131 -1041 0
-131 -1076 0
-131 -1111 0
-131 -1146 0
-131 -1181 0
-131 -1216 0
-131 -1251 0
-166 -201 0
-166 -236 0
-166 -271 0
-166 -306 0
-166 -341 0
-166 -376 0
-166 -411 0
-166 -446 0
-166 -481 0
-166 -516 0
-166 -551 0
-166 -586 0
-166 -621 0
-166 -656 0
-166 -691 0
-166 -726 0
-166 -761 0
-166 -796 0
-166 -831 0
-166 -866 0
-166 -901 0
-166 -936 0
-166 -971 0
-166 -1006 0
-166 -1041 0
-166 -1076 0
-166 -1111 0
-166 -1146 0
-166 -1181 0
-166 -1216 0
-166 -1251 0
-201 -236 0
-201 -271 0
-201 -306 0
-201 -341 0
-201 -376 0
-201 -411 0
-201 -446 0
-201 -481 0
-201 -516 0
-201 -551 0
-201 -586 0
-201 -621 0
-201 -656 0
-201 -691 0
-201 -726 0
-201 -761 0
-201 -796 0
-201 -831 0
-201 -866 0
-201 -901 0
-201 -936 0
-201 -971 0
-201 -1006 0
-201 -1041 0
-201 -1076 0
-201 -1111 0
-201 -1146 0
-201 -1181 0
-201 -1216 0
-201 -1251 0
-236 -271 0
-236 -306 0
-236 -341 0
-236 -376 0
-236 -411 0
-236 -446 0
-236 -481 0
-236 -516 0
-236 -551 0
-236 -586 0
-236 -621 0
-236 -656 0
-236 -691 0
-236 -726 0
-236 -761 0
-236 -796 0
-236 -831 0
-236 -866 0
-236 -901 0
-236 -936 0
-236 -971 0
-236 -1006 0
-236 -1041 0
-236 -1076 0
-236 -1111 0
-236 -1146 0
-236 -1181 0
-236 -1216 0
-236 -1251 0
-271 -306 0
-271 -341 0
-271 -376 0
-271 -411 0
-271 -446 0
-271 -481 0
-271 -516 0
-271 -551 0
-271 -586 0
-271 -621 0
-271 -656 0
-271 -691 0
-271 -726 0
-271 -761 0
-271 -796 0
-271 -831 0
-271 -866 0
-271 -901 0
-271 -936 0
-271 -971 0
-271 -1006 0
-271 -1041 0
-271 -1076 0
-271 -1111 0
-271 -1146 0
-271 -1181 0
-271 -1216 0
-271 -1251 0
-306 -341 0
-306 -376 0
-306 -411 0
-306 -446 0
-306 -481 0
-306 -516 0
-306 -551 0
-306 -586 0
-306 -621 0
-306 -656 0
-306 -691 0
-306 -726 0
-306 -761 0
-306 -796 0
-306 -831 0
-306 -866 0
-306 -901 0
-306 -936 0
-306 -971 0
-306 -1006 0
-306 -1041 0
-306 -1076 0
-306 -1111 0
-306 -1146 0
-306 -1181 0
-306 -1216 0
-306 -1251 0
-341 -376 0
-341 -411 0
-341 -446 0
-341 -481 0
-341 -516 0
-341 -551 0
-341 -586 0
-341 -621 0
-341 -656 0
-341 -691 0
-341 -726 0
-341 -761 0
-341 -796 0
-341 -831 0
-341 -866 0
-341 -901 0
-341 -936 0
-341 -971 0
-341 -1006 0
-341 -1041 0
-341 -1076 0
-341 -1111 0
-341 -1146 0
-341 -1181 0
-341 -1216 0
-341 -1251 0
-376 -411 0
-376 -446 0
-376 -481 0
-376 -516 0
-376 -551 0
-376 -586 0
-376 -621 0
-376 -656 0
-376 -691 0
-376 -726 0
-376 -761 0
-376 -796 0
-376 -831 0
-376 -866 0
-376 -901 0
-376 -936 0
-376 -971 0
-376 -1006 0
-376 -1041 0
-376 -1076 0
-376 -1111 0
-376 -1146 0
-376 -1181 0
-376 -1216 0
-376 -1251 0
-411 -446 0
-411 -481 0
-411 -516 0
-411 -551 0
-411 -586 0
-411 -621 0
-411 -656 0
-411 -691 0
-411 -726 0
-411 -761 0
-411 -796 0
-411 -831 0
-411 -866 0
-411 -901 0
-411 -936 0
-411 -971 0
-411 -1006 0
-411 -1041 0
-411 -1076 0
-411 -1111 0
-411 -1146 0
-411 -1181 0
-411 -1216 0
-411 -1251 0
-446 -481 0
-446 -516 0
-446 -551 0
-446 -586 0
-446 -621 0
-446 -656 0
-446 -691 0
-446 -726 0
-446 -761 0
-446 -796 0
-446 -831 0
-446 -866 0
-446 -901 0
-446 -936 0
-446 -971 0
-446 -1006 0
-446 -1041 0
-446 -1076 0
-446 -1111 0
-446 -1146 0
-446 -1181 0
-446 -1216 0
-446 -1251 0
-481 -516 0
-481 -551 0
-481 -586 0
-481 -621 0
-481 -656 0
-481 -691 0
-481 -726 0
-481 -761 0
-481 -796 0
-481 -831 0
-481 -866 0
-481 -901 0
-481 -936 0
-481 -971 0
-481 -1006 0
-481 -1041 0
-481 -1076 0
-481 -1111 0
-481 -1146 0
-481 -1181 0
-481 -1216 0
-481 -1251 0
-516 -551 0
-516 -586 0
-516 -621 0
-516 -656 0
-516 -691 0
-516 -726 0
-516 -761 0
-516 -796 0
-516 -831 0
-516 -866 0
-516 -901 0
-516 -936 0
-516 -971 0
-516 -1006 0
-516 -1041 0
-516 -1076 0
-516 -1111 0
-516 -1146 0
-516 -1181 0
-516 -1216 0
-516 -1251 0
-551 -586 0
-551 -621 0
-551 -656 0
-551 -691 0
-551 -726 0
-551 -761 0
-551 -796 0
-551 -831 0
-551 -866 0
-551 -901 0
-551 -936 0
-551 -971 0
-551 -1006 0
-551 -1041 0
-551 -1076 0
-551 -1111 0
-551 -1146 0
-551 -1181 0
-551 -1216 0
-551 -1251 0
-586 -621 0
-586 -656 0
-586 -691 0
-586 -726 0
-586 -761 0
-586 -796 0
-586 -831 0
-586 -866 0
-586 -901 0
-586 -936 0
-586 -971 0
-586 -1006 0
-586 -1041 0
-586 -1076 0
-586 -1111 0
-586 -1146 0
-586 -1181 0
-586 -1216 0
-586 -1251 0
-621 -656 0
-621 -691 0
-621 -726 0
-621 -761 0
-621 -796 0
-621 -831 0
-621 -866 0
-621 -901 0
-621 -936 0
-621 -971 0
-621 -1006 0
-621 -1041 0
-621 -1076 0
-621 -1111 0
-621 -1146 0
-621 -1181 0
-621 -1216 0
-621 -1251 0
-656 -691 0
-656 -726 0
-656 -761 0
-656 -796 0
-656 -831 0
-656 -866 0
-656 -901 0
-656 -936 0
-656 -971 0
-656 -1006 0
-656 -1041 0
-656 -1076 0
-656 -1111 0
-656 -1146 0
-656 -1181 0
-656 -1216 0
-656 -1251 0
-691 -726 0
-691 -761 0
-691 -796 0
-691 -831 0
-691 -866 0
-691 -901 0
-691 -936 0
-691 -971 0
-691 -1006 0
-691 -1041 0
-691 -1076 0
-691 -1111 0
-691 -1146 0
-691 -1181 0
-691 -1216 0
-691 -1251 0
-726 -761 0
-726 -796 0
-726 -831 0
-726 -866 0
-726 -901 0
-726 -936 0
-726 -971 0
-726 -1006 0
-726 -1041 0
-726 -1076 0
-726 -1111 0
-726 -1146 0
-726 -1181 0
-726 -1216 0
-726 -1251 0
-761 -796 0
-761 -831 0
-761 -866 0
-761 -901 0
-761 -936 0
-761 -971 0
-761 -1006 0
-761 -1041 0
-761 -1076 0
-761 -1111 0
-761 -1146 0
-761 -1181 0
-761 -1216 0
-761 -1251 0
-796 -831 0
-796 -866 0
-796 -901 0
-796 -936 0
-796 -971 0
-796 -1006 0
-796 -1041 0
-796 -1076 0
-796 -1111 0
-796 -1146 0
-796 -1181 0
-796 -1216 0
-796 -1251 0
-831 -866 0
-831 -901 0
-831 -936 0
-831 -971 0
-831 -1006 0
-831 -1041 0
-831 -1076 0
-831 -1111 0
-831 -1146 0
-831 -1181 0
-831 -1216 0
-831 -1251 0
-866 -901 0
-866 -936 0
-866 -971 0
-866 -1006 0
-866 -1041 0
-866 -1076 0
-866 -1111 0
-866 -1146 0
-866 -1181 0
-866 -1216 0
-866 -1251 0
-901 -936 0
-901 -971 0
-901 -1006 0
-901 -1041 0
-901 -1076 0
-901 -1111 0
-901 -1146 0
-901 -1181 0
-901 -1216 0
-901 -1251 0
-936 -971 0
-936 -1006 0
-936 -1041 0
-936 -1076 0
-936 -1111 0
-936 -1146 0
-936 -1181 0
-936 -1216 0
-936 -1251 0
-971 -1006 0
-971 -1041 0
-971 -1076 0
-971 -1111 0
-971 -1146 0
-971 -1181 0
-971 -1216 0
-971 -1251 0
-1006 -1041 0
-1006 -1076 0
-1006 -1111 0
-1006 -1146 0
-1006 -1181 0
-1006 -1216 0
-1006 -1251 0
-1041 -1076 0
-1041 -1111 0
-1041 -1146 0
-1041 -1181 0
-1041 -1216 0
-1041 -1251 0
-1076 -1111 0
-1076 -1146 0
-1076 -1181 0
-1076 -1216 0
-1076 -1251 0
-1111 -1146 0
-1111 -1181 0
-1111 -1216 0
-1111 -1251 0
-1146 -1181 0
-1146 -1216 0
-1146 -1251 0
-1181 -1216 0
-1181 -1251 0
-1216 -1251 0
-27 -62 0
-27 -97 0
-27 -132 0
-27 -167 0
-27 -202 0
-27 -237 0
-27 -272 0
-27 -307 0
-27 -342 0
-27 -377 0
-27 -412 0
-27 -447 0
-27 -482 0
-27 -517 0
-27 -552 0
-27 -587 0
-27 -622 0
-27 -657 0
-27 -692 0
-27 -727 0
-27 -762 0
-27 -797 0
-27 -832 0
-27 -867 0
-27 -902 0
-27 -937 0
-27 -972 0
-27 -1007 0
-27 -1042 0
-27 -1077 0
-27 -1112 0
-27 -1147 0
-27 -1182 0
-27 -1217 0
-27 -1252 0
-62 -97 0
-62 -132 0
-62 -167 0
-62 -202 0
-62 -237 0
-62 -272 0
-62 -307 0
-62 -342 0
-62 -377 0
-62 -412 0
-62 -447 0
-62 -482 0
-62 -517 0
-62 -552 0
-62 -587 0
-62 -622 0
-62 -657 0
-62 -692 0
-62 -727 0
-62 -762 0
-62 -797 0
-62 -832 0
-62 -867 0
-62 -902 0
-62 -937 0
-62 -972 0
-62 -1007 0
-62 -1042 0
-62 -1077 0
-62 -1112 0
-62 -1147 0
-62 -1182 0
-62 -1217 0
-62 -1252 0
-97 -132 0
-97 -167 0
-97 -202 0
-97 -237 0
-97 -272 0
-97 -307 0
-97 -342 0
-97 -377 0
-97 -412 0
-97 -447 0
-97 -482 0
-97 -517 0
-97 -552 0
-97 -587 0
-97 -622 0
-97 -657 0
-97 -692 0
-97 -727 0
-97 -762 0
-97 -797 0
-97 -832 0
-97 -867 0
-97 -902 0
-97 -937 0
-97 -972 0
-97 -1007 0
-97 -1042 0
-97 -1077 0
-97 -1112 0
-97 -1147 0
-97 -1182 0
-97 -1217 0
-97 -1252 0
-132 -167 0
-132 -202 0
-132 -237 0
-132 -272 0
-132 -307 0
-132 -342 0
-132 -377 0
-132 -412 0
-132 -447 0
-132 -482 0
-132 -517 0
-132 -552 0
-132 -587 0
-132 -622 0
-132 -657 0
-132 -692 0
-132 -727 0
-132 -762 0
-132 -797 0
-132 -832 0
-132 -867 0
-132 -902 0
-132 -937 0
-132 -972 0
-132 -1007 0
-132 -1042 0
-132 -1077 0
-132 -1112 0
-132 -1147 0
-132 -1182 0
-132 -1217 0
-132 -1252 0
-167 -202 0
-167 -237 0
-167 -272 0
-167 -307 0
-167 -342 0
-167 -377 0
-167 -412 0
-167 -447 0
-167 -482 0
-167 -517 0
-167 -552 0
-167 -587 0
-167 -622 0
-167 -657 0
-167 -692 0
-167 -727 0
-167 -762 0
-167 -797 0
-167 -832 0
-167 -867 0
-167 -902 0
-167 -937 0
-167 -972 0
-167 -1007 0
-167 -1042 0
-167 -1077 0
-167 -1112 0
-167 -1147 0
-167 -1182 0
-167 -1217 0
-167 -1252 0
-202 -237 0
-202 -272 0
-202 -307 0
-202 -342 0
-202 -377 0
-202 -412 0
-202 -447 0
-202 -482 0
-202 -517 0
-202 -552 0
-202 -587 0
-202 -622 0
-202 -657 0
-202 -692 0
-202 -727 0
-202 -762 0
-202 -797 0
-202 -832 0
-202 -867 0
-202 -902 0
-202 -937 0
-202 -972 0
-202 -1007 0
-202 -1042 0
-202 -1077 0
-202 -1112 0
-202 -1147 0
-202 -1182 0
-202 -1217 0
-202 -1252 0
-237 -272 0
-237 -307 0
-237 -342 0
-237 -377 0
-237 -412 0
-237 -447 0
-237 -482 0
-237 -517 0
-237 -552 0
-237 -587 0
-237 -622 0
-237 -657 0
-237 -692 0
-237 -727 0
-237 -762 0
-237 -797 0
-237 -832 0
-237 -867 0
-237 -902 0
-237 -937 0
-237 -972 0
-237 -1007 0
-237 -1042 0
-237 -1077 0
-237 -1112 0
-237 -1147 0
-237 -1182 0
-237 -1217 0
-237 -1252 0
-272 -307 0
-272 -342 0
-272 -377 0
-272 -412 0
-272 -447 0
-272 -482 0
-272 -517 0
-272 -552 0
-272 -587 0
-272 -622 0
-272 -657 0
-272 -692 0
-272 -727 0
-272 -762 0
-272 -797 0
-272 -832 0
-272 -867 0
-272 -902 0
-272 -937 0
-272 -972 0
-272 -1007 0
-272 -1042 0
-272 -1077 0
-272 -1112 0
-272 -1147 0
-272 -1182 0
-272 -1217 0
-272 -1252 0
-307 -342 0
-307 -377 0
-307 -412 0
-307 -447 0
-307 -482 0
-307 -517 0
-307 -552 0
-307 -587 0
-307 -622 0
-307 -657 0
-307 -692 0
-307 -727 0
-307 -762 0
-307 -797 0
-307 -832 0
-307 -867 0
-307 -902 0
-307 -937 0
-307 -972 0
-307 -1007 0
-307 -1042 0
-307 -1077 0
-307 -1112 0
-307 -1147 0
-307 -1182 0
-307 -1217 0
-307 -1252 0
-342 -377 0
-342 -412 0
-342 -447 0
-342 -482 0
-342 -517 0
-342 -552 0
-342 -587 0
-342 -622 0
-342 -657 0
-342 -692 0
-342 -727 0
-342 -762 0
-342 -797 0
-342 -832 0
-342 -867 0
-342 -902 0
-342 -937 0
-342 -972 0
-342 -1007 0
-342 -1042 0
-342 -1077 0
-342 -1112 0
-342 -1147 0
-342 -1182 0
-342 -1217 0
-342 -1252 0
-377 -412 0
-377 -447 0
-377 -482 0
-377 -517 0
-377 -552 0
-377 -587 0
-377 -622 0
-377 -657 0
-377 -692 0
-377 -727 0
-377 -762 0
-377 -797 0
-377 -832 0
-377 -867 0
-377 -902 0
-377 -937 0
-377 -972 0
-377 -1007 0
-377 -1042 0
-377 -1077 0
-377 -1112 0
-377 -1147 0
-377 -1182 0
-377 -1217 0
-377 -1252 0
-412 -447 0
-412 -482 0
-412 -517 0
-412 -552 0
-412 -587 0
-412 -622 0
-412 -657 0
-412 -692 0
-412 -727 0
-412 -762 0
-412 -797 0
-412 -832 0
-412 -867 0
-412 -902 0
-412 -937 0
-412 -972 0
-412 -1007 0
-412 -1042 0
-412 -1077 0
-412 -1112 0
-412 -1147 0
-412 -1182 0
-412 -1217 0
-412 -1252 0
-447 -482 0
-447 -517 0
-447 -552 0
-447 -587 0
-447 -622 0
-447 -657 0
-447 -692 0
-447 -727 0
-447 -762 0
-447 -797 0
-447 -832 0
-447 -867 0
-447 -902 0
-447 -937 0
-447 -972 0
-447 -1007 0
-447 -1042 0
-447 -1077 0
-447 -1112 0
-447 -1147 0
-447 -1182 0
-447 -1217 0
-447 -1252 0
-482 -517 0
-482 -552 0
-482 -587 0
-482 -622 0
-482 -657 0
-482 -692 0
-482 -727 0
-482 -762 0
-482 -797 0
-482 -832 0
-482 -867 0
-482 -902 0
-482 -937 0
-482 -972 0
-482 -1007 0
-482 -1042 0
-482 -1077 0
-482 -1112 0
-482 -1147 0
-482 -1182 0
-482 -1217 0
-482 -1252 0
-517 -552 0
-517 -587 0
-517 -622 0
-517 -657 0
-517 -692 0
-517 -727 0
-517 -762 0
-517 -797 0
-517 -832 0
-517 -867 0
-517 -902 0
-517 -937 0
-517 -972 0
-517 -1007 0
-517 -1042 0
-517 -1077 0
-517 -1112 0
-517 -1147 0
-517 -1182 0
-517 -1217 0
-517 -1252 0
-552 -587 0
-552 -622 0
-552 -657 0
-552 -692 0
-552 -727 0
-552 -762 0
-552 -797 0
-552 -832 0
-552 -867 0
-552 -902 0
-552 -937 0
-552 -972 0
-552 -1007 0
-552 -1042 0
-552 -1077 0
-552 -1112 0
-552 -1147 0
-552 -1182 0
-552 -1217 0
-552 -1252 0
-587 -622 0
-587 -657 0
-587 -692 0
-587 -727 0
-587 -762 0
-587 -797 0
-587 -832 0
-587 -867 0
-587 -902 0
-587 -937 0
-587 -972 0
-587 -1007 0
-587 -1042 0
-587 -1077 0
-587 -1112 0
-587 -1147 0
-587 -1182 0
-587 -1217 0
-587 -1252 0
-622 -657 0
-622 -692 0
-622 -727 0
-622 -762 0
-622 -797 0
-622 -832 0
-622 -867 0
-622 -902 0
-622 -937 0
-622 -972 0
-622 -1007 0
-622 -1042 0
-622 -1077 0
-622 -1112 0
-622 -1147 0
-622 -1182 0
-622 -1217 0
-622 -1252 0
-657 -692 0
-657 -727 0
-657 -762 0
-657 -797 0
-657 -832 0
-657 -867 0
-657 -902 0
-657 -937 0
-657 -972 0
-657 -1007 0
-657 -1042 0
-657 -1077 0
-657 -1112 0
-657 -1147 0
-657 -1182 0
-657 -1217 0
-657 -1252 0
-692 -727 0
-692 -762 0
-692 -797 0
-692 -832 0
-692 -867 0
-692 -902 0
-692 -937 0
-692 -972 0
-692 -1007 0
-692 -1042 0
-692 -1077 0
-692 -1112 0
-692 -1147 0
-692 -1182 0
-692 -1217 0
-692 -1252 0
-727 -762 0
-727 -797 0
-727 -832 0
-727 -867 0
-727 -902 0
-727 -937 0
-727 -972 0
-727 -1007 0
-727 -1042 0
-727 -1077 0
-727 -1112 0
-727 -1147 0
-727 -1182 0
-727 -1217 0
-727 -1252 0
-762 -797 0
-762 -832 0
-762 -867 0
-762 -902 0
-762 -937 0
-762 -972 0
-762 -1007 0
-762 -1042 0
-762 -1077 0
-762 -1112 0
-762 -1147 0
-762 -1182 0
-762 -1217 0
-762 -1252 0
-797 -832 0
-797 -867 0
-797 -902 0
-797 -937 0
-797 -972 0
-797 -1007 0
-797 -1042 0
-797 -1077 0
-797 -1112 0
-797 -1147 0
-797 -1182 0
-797 -1217 0
-797 -1252 0
-832 -867 0
-832 -902 0
-832 -937 0
-832 -972 0
-832 -1007 0
-832 -1042 0
-832 -1077 0
-832 -1112 0
-832 -1147 0
-832 -1182 0
-832 -1217 0
-832 -1252 0
-867 -902 0
-867 -937 0
-867 -972 0
-867 -1007 0
-867 -1042 0
-867 -1077 0
-867 -1112 0
-867 -1147 0
-867 -1182 0
-867 -1217 0
-867 -1252 0
-902 -937 0
-902 -972 0
-902 -1007 0
-902 -1042 0
-902 -1077 0
-902 -1112 0
-902 -1147 0
-902 -1182 0
-902 -1217 0
-902 -1252 0
-937 -972 0
-937 -1007 0
-937 -1042 0
-937 -1077 0
-937 -1112 0
-937 -1147 0
-937 -1182 0
-937 -1217 0
-937 -1252 0
-972 -1007 0
-972 -1042 0
-972 -1077 0
-972 -1112 0
-972 -1147 0
-972 -1182 0
-972 -1217 0
-972 -1252 0
-1007 -1042 0
-1007 -1077 0
-1007 -1112 0
-1007 -1147 0
-1007 -1182 0
-1007 -1217 0
-1007 -1252 0
-1042 -1077 0
-1042 -1112 0
-1042 -1147 0
-1042 -1182 0
-1042 -1217 0
-1042 -1252 0
-1077 -1112 0
-1077 -1147 0
-1077 -1182 0
-1077 -1217 0
-1077 -1252 0
-1112 -1147 0
-1112 -1182 0
-1112 -1217 0
-1112 -1252 0
-1147 -1182 0
-1147 -1217 0
-1147 -1252 0
-1182 -1217 0
-1182 -1252 0
-1217 -1252 0
-28 -63 0
-28 -98 0
-28 -133 0
-28 -168 0
-28 -203 0
-28 -238 0
-28 -273 0
-28 -308 0
-28 -343 0
-28 -378 0
-28 -413 0
-28 -448 0
-28 -483 0
-28 -518 0
-28 -553 0
-28 -588 0
-28 -623 0
-28 -658 0
-28 -693 0
-28 -728 0
-28 -763 0
-28 -798 0
-28 -833 0
-28 -868 0
-28 -903 0
-28 -938 0
-28 -973 0
-28 -1008 0
-28 -1043 0
-28 -1078 0
-28 -1113 0
-28 -1148 0
-28 -1183 0
-28 -1218 0
-28 -1253 0
-63 -98 0
-63 -133 0
-63 -168 0
-63 -203 0
-63 -238 0
-63 -273 0
-63 -308 0
-63 -343 0
-63 -378 0
-63 -413 0
-63 -448 0
-63 -483 0
-63 -518 0
-63 -553 0
-63 -588 0
-63 -623 0
-63 -658 0
-63 -693 0
-63 -728 0
-63 -763 0
-63 -798 0
-63 -833 0
-63 -868 0
-63 -903 0
-63 -938 0
-63 -973 0
-63 -1008 0
-63 -1043 0
-63 -1078 0
-63 -1113 0
-63 -1148 0
-63 -1183 0
-63 -1218 0
-63 -1253 0
-98 -133 0
-98 -168 0
-98 -203 0
-98 -238 0
-98 -273 0
-98 -308 0
-98 -343 0
-98 -378 0
-98 -413 0
-98 -448 0
-98 -483 0
-98 -518 0
-98 -553 0
-98 -588 0
-98 -623 0
-98 -658 0
-98 -693 0
-98 -728 0
-98 -763 0
-98 -798 0
-98 -833 0
-98 -868 0
-98 -903 0
-98 -938 0
-98 -973 0
-98 -1008 0
-98 -1043 0
-98 -1078 0
-98 -1113 0
-98 -1148 0
-98 -1183 0
-98 -1218 0
-98 -1253 0
-133 -168 0
-133 -203 0
-133 -238 0
-133 -273 0
-133 -308 0
-133 -343 0
-133 -378 0
-133 -413 0
-133 -448 0
-133 -483 0
-133 -518 0
-133 -553 0
-133 -588 0
-133 -623 0
-133 -658 0
-133 -693 0
-133 -728 0
-133 -763 0
-133 -798 0
-133 -833 0
-133 -868 0
-133 -903 0
-133 -938 0
-133 -973 0
-133 -1008 0
-133 -1043 0
-133 -1078 0
-133 -1113 0
-133 -1148 0
-133 -1183 0
-133 -1218 0
-133 -1253 0
-168 -203 0
-168 -238 0
-168 -273 0
-168 -308 0
-168 -343 0
-168 -378 0
-168 -413 0
-168 -448 0
-168 -483 0
-168 -518 0
-168 -553 0
-168 -588 0
-168 -623 0
-168 -658 0
-168 -693 0
-168 -728 0
-168 -763 0
-168 -798 0
-168 -833 0
-168 -868 0
-168 -903 0
-168 -938 0
-168 -973 0
-168 -1008 0
-168 -1043 0
-168 -1078 0
-168 -1113 0
-168 -1148 0
-168 -1183 0
-168 -1218 0
-168 -1253 0
-203 -238 0
-203 -273 0
-203 -308 0
-203 -343 0
-203 -378 0
-203 -413 0
-203 -448 0
-203 -483 0
-203 -518 0
-203 -553 0
-203 -588 0
-203 -623 0
-203 -658 0
-203 -693 0
-203 -728 0
-203 -763 0
-203 -798 0
-203 -833 0
-203 -868 0
-203 -903 0
-203 -938 0
-203 -973 0
-203 -1008 0
-203 -1043 0
-203 -1078 0
-203 -1113 0
-203 -1148 0
-203 -1183 0
-203 -1218 0
-203 -1253 0
-238 -273 0
-238 -308 0
-238 -343 0
-238 -378 0
-238 -413 0
-238 -448 0
-238 -483 0
-238 -518 0
-238 -553 0
-238 -588 0
-238 -623 0
-238 -658 0
-238 -693 0
-238 -728 0
-238 -763 0
-238 -798 0
-238 -833 0
-238 -868 0
-238 -903 0
-238 -938 0
-238 -973 0
-238 -1008 0
-238 -1043 0
-238 -1078 0
-238 -1113 0
-238 -1148 0
-238 -1183 0
-238 -1218 0
-238 -1253 0
-273 -308 0
-273 -343 0
-273 -378 0
-273 -413 0
-273 -448 0
-273 -483 0
-273 -518 0
-273 -553 0
-273 -588 0
-273 -623 0
-273 -658 0
-273 -693 0
-273 -728 0
-273 -763 0
-273 -798 0
-273 -833 0
-273 -868 0
-273 -903 0
-273 -938 0
-273 -973 0
-273 -1008 0
-273 -1043 0
-273 -1078 0
-273 -1113 0
-273 -1148 0
-273 -1183 0
-273 -1218 0
-273 -1253 0
-308 -343 0
-308 -378 0
-308 -413 0
-308 -448 0
-308 -483 0
-308 -518 0
-308 -553 0
-308 -588 0
-308 -623 0
-308 -658 0
-308 -693 0
-308 -728 0
-308 -763 0
-308 -798 0
-308 -833 0
-308 -868 0
-308 -903 0
-308 -938 0
-308 -973 0
-308 -1008 0
-308 -1043 0
-308 -1078 0
-308 -1113 0
-308 -1148 0
-308 -1183 0
-308 -1218 0
-308 -1253 0
-343 -378 0
-343 -413 0
-343 -448 0
-343 -483 0
-343 -518 0
-343 -553 0
-343 -588 0
-343 -623 0
-343 -658 0
-343 -693 0
-343 -728 0
-343 -763 0
-343 -798 0
-343 -833 0
-343 -868 0
-343 -903 0
-343 -938 0
-343 -973 0
-343 -1008 0
-343 -1043 0
-343 -1078 0
-343 -1113 0
-343 -1148 0
-343 -1183 0
-343 -1218 0
-343 -1253 0
-378 -413 0
-378 -448 0
-378 -483 0
-378 -518 0
-378 -553 0
-378 -588 0
-378 -623 0
-378 -658 0
-378 -693 0
-378 -728 0
-378 -763 0
-378 -798 0
-378 -833 0
-378 -868 0
-378 -903 0
-378 -938 0
-378 -973 0
-378 -1008 0
-378 -1043 0
-378 -1078 0
-378 -1113 0
-378 -1148 0
-378 -1183 0
-378 -1218 0
-378 -1253 0
-413 -448 0
-413 -483 0
-413 -518 0
-413 -553 0
-413 -588 0
-413 -623 0
-413 -658 0
-413 -693 0
-413 -728 0
-413 -763 0
-413 -798 0
-413 -833 0
-413 -868 0
-413 -903 0
-413 -938 0
-413 -973 0
-413 -1008 0
-413 -1043 0
-413 -1078 0
-413 -1113 0
-413 -1148 0
-413 -1183 0
-413 -1218 0
-413 -1253 0
-448 -483 0
-448 -518 0
-448 -553 0
-448 -588 0
-448 -623 0
-448 -658 0
-448 -693 0
-448 -728 0
-448 -763 0
-448 -798 0
-448 -833 0
-448 -868 0
-448 -903 0
-448 -938 0
-448 -973 0
-448 -1008 0
-448 -1043 0
-448 -1078 0
-448 -1113 0
-448 -1148 0
-448 -1183 0
-448 -1218 0
-448 -1253 0
-483 -518 0
-483 -553 0
-483 -588 0
-483 -623 0
-483 -658 0
-483 -693 0
-483 -728 0
-483 -763 0
-483 -798 0
-483 -833 0
-483 -868 0
-483 -903 0
-483 -938 0
-483 -973 0
-483 -1008 0
-483 -1043 0
-483 -1078 0
-483 -1113 0
-483 -1148 0
-483 -1183 0
-483 -1218 0
-483 -1253 0
-518 -553 0
-518 -588 0
-518 -623 0
-518 -658 0
-518 -693 0
-518 -728 0
-518 -763 0
-518 -798 0
-518 -833 0
-518 -868 0
-518 -903 0
-518 -938 0
-518 -973 0
-518 -1008 0
-518 -1043 0
-518 -1078 0
-518 -1113 0
-518 -1148 0
-518 -1183 0
-518 -1218 0
-518 -1253 0
-553 -588 0
-553 -623 0
-553 -658 0
-553 -693 0
-553 -728 0
-553 -763 0
-553 -798 0
-553 -833 0
-553 -868 0
-553 -903 0
-553 -938 0
-553 -973 0
-553 -1008 0
-553 -1043 0
-553 -1078 0
-553 -1113 0
-553 -1148 0
-553 -1183 0
-553 -1218 0
-553 -1253 0
-588 -623 0
-588 -658 0
-588 -693 0
-588 -728 0
-588 -763 0
-588 -798 0
-588 -833 0
-588 -868 0
-588 -903 0
-588 -938 0
-588 -973 0
-588 -1008 0
-588 -1043 0
-588 -1078 0
-588 -1113 0
-588 -1148 0
-588 -1183 0
-588 -1218 0
-588 -1253 0
-623 -658 0
-623 -693 0
-623 -728 0
-623 -763 0
-623 -798 0
-623 -833 0
-623 -868 0
-623 -903 0
-623 -938 0
-623 -973 0
-623 -1008 0
-623 -1043 0
-623 -1078 0
-623 -1113 0
-623 -1148 0
-623 -1183 0
-623 -1218 0
-623 -1253 0
-658 -693 0
-658 -728 0
-658 -763 0
-658 -798 0
-658 -833 0
-658 -868 0
-658 -903 0
-658 -938 0
-658 -973 0
-658 -1008 0
-658 -1043 0
-658 -1078 0
-658 -1113 0
-658 -1148 0
-658 -1183 0
-658 -1218 0
-658 -1253 0
-693 -728 0
-693 -763 0
-693 -798 0
-693 -833 0
-693 -868 0
-693 -903 0
-693 -938 0
-693 -973 0
-693 -1008 0
-693 -1043 0
-693 -1078 0
-693 -1113 0
-693 -1148 0
-693 -1183 0
-693 -1218 0
-693 -1253 0
-728 -763 0
-728 -798 0
-728 -833 0
-728 -868 0
-728 -903 0
-728 -938 0
-728 -973 0
-728 -1008 0
-728 -1043 0
-728 -1078 0
-728 -1113 0
-728 -1148 0
-728 -1183 0
-728 -1218 0
-728 -1253 0
-763 -798 0
-763 -833 0
-763 -868 0
-763 -903 0
-763 -938 0
-763 -973 0
-763 -1008 0
-763 -1043 0
-763 -1078 0
-763 -1113 0
-763 -1148 0
-763 -1183 0
-763 -1218 0
-763 -1253 0
-798 -833 0
-798 -868 0
-798 -903 0
-798 -938 0
-798 -973 0
-798 -1008 0
-798 -1043 0
-798 -1078 0
-798 -1113 0
-798 -1148 0
-798 -1183 0
-798 -1218 0
-798 -1253 0
-833 -868 0
-833 -903 0
-833 -938 0
-833 -973 0
-833 -1008 0
-833 -1043 0
-833 -1078 0
-833 -1113 0
-833 -1148 0
-833 -1183 0
-833 -1218 0
-833 -1253 0
-868 -903 0
-868 -938 0
-868 -973 0
-868 -1008 0
-868 -1043 0
-868 -1078 0
-868 -1113 0
-868 -1148 0
-868 -1183 0
-868 -1218 0
-868 -1253 0
-903 -938 0
-903 -973 0
-903 -1008 0
-903 -1043 0
-903 -1078 0
-903 -1113 0
-903 -1148 0
-903 -1183 0
-903 -1218 0
-903 -1253 0
-938 -973 0
-938 -1008 0
-938 -1043 0
-938 -1078 0
-938 -1113 0
-938 -1148 0
-938 -1183 0
-938 -1218 0
-938 -1253 0
-973 -1008 0
-973 -1043 0
-973 -1078 0
-973 -1113 0
-973 -1148 0
-973 -1183 0
-973 -1218 0
-973 -1253 0
-1008 -1043 0
-1008 -1078 0
-1008 -1113 0
-1008 -1148 0
-1008 -1183 0
-1008 -1218 0
-1008 -1253 0
-1043 -1078 0
-1043 -1113 0
-1043 -1148 0
-1043 -1183 0
-1043 -1218 0
-1043 -1253 0
-1078 -1113 0
-1078 -1148 0
-1078 -1183 0
-1078 -1218 0
-1078 -1253 0
-1113 -1148 0
-1113 -1183 0
-1113 -1218 0
-1113 -1253 0
-1148 -1183 0
-1148 -1218 0
-1148 -1253 0
-1183 -1218 0
-1183 -1253 0
-1218 -1253 0
-29 -64 0
-29 -99 0
-29 -134 0
-29 -169 0
-29 -204 0
-29 -239 0
-29 -274 0
-29 -309 0
-29 -344 0
-29 -379 0
-29 -414 0
-29 -449 0
-29 -484 0
-29 -519 0
-29 -554 0
-29 -589 0
-29 -624 0
-29 -659 0
-29 -694 0
-29 -729 0
-29 -764 0
-29 -799 0
-29 -834 0
-29 -869 0
-29 -904 0
-29 -939 0
-29 -974 0
-29 -1009 0
-29 -1044 0
-29 -1079 0
-29 -1114 0
-29 -1149 0
-29 -1184 0
-29 -1219 0
-29 -1254 0
-64 -99 0
-64 -134 0
-64 -169 0
-64 -204 0
-64 -239 0
-64 -274 0
-64 -309 0
-64 -344 0
-64 -379 0
-64 -414 0
-64 -449 0
-64 -484 0
-64 -519 0
-64 -554 0
-64 -589 0
-64 -624 0
-64 -659 0
-64 -694 0
-64 -729 0
-64 -764 0
-64 -799 0
-64 -834 0
-64 -869 0
-64 -904 0
-64 -939 0
-64 -974 0
-64 -1009 0
-64 -1044 0
-64 -1079 0
-64 -1114 0
-64 -1149 0
-64 -1184 0
-64 -1219 0
-64 -1254 0
-99 -134 0
-99 -169 0
-99 -204 0
-99 -239 0
-99 -274 0
-99 -309 0
-99 -344 0
-99 -379 0
-99 -414 0
-99 -449 0
-99 -484 0
-99 -519 0
-99 -554 0
-99 -589 0
-99 -624 0
-99 -659 0
-99 -694 0
-99 -729 0
-99 -764 0
-99 -799 0
-99 -834 0
-99 -869 0
-99 -904 0
-99 -939 0
-99 -974 0
-99 -1009 0
-99 -1044 0
-99 -1079 0
-99 -1114 0
-99 -1149 0
-99 -1184 0
-99 -1219 0
-99 -1254 0
-134 -169 0
-134 -204 0
-134 -239 0
-134 -274 0
-134 -309 0
-134 -344 0
-134 -379 0
-134 -414 0
-134 -449 0
-134 -484 0
-134 -519 0
-134 -554 0
-134 -589 0
-134 -624 0
-134 -659 0
-134 -694 0
-134 -729 0
-134 -764 0
-134 -799 0
-134 -834 0
-134 -869 0
-134 -904 0
-134 -939 0
-134 -974 0
-134 -1009 0
-134 -1044 0
-134 -1079 0
-134 -1114 0
-134 -1149 0
-134 -1184 0
-134 -1219 0
-134 -1254 0
-169 -204 0
-169 -239 0
-169 -274 0
-169 -309 0
-169 -344 0
-169 -379 0
-169 -414 0
-169 -449 0
-169 -484 0
-169 -519 0
-169 -554 0
-169 -589 0
-169 -624 0
-169 -659 0
-169 -694 0
-169 -729 0
-169 -764 0
-169 -799 0
-169 -834 0
-169 -869 0
-169 -904 0
-169 -939 0
-169 -974 0
-169 -1009 0
-169 -1044 0
-169 -1079 0
-169 -1114 0
-169 -1149 0
-169 -1184 0
-169 -1219 0
-169 -1254 0
-204 -239 0
-204 -274 0
-204 -309 0
-204 -344 0
-204 -379 0
-204 -414 0
-204 -449 0
-204 -484 0
-204 -519 0
-204 -554 0
-204 -589 0
-204 -624 0
-204 -659 0
-204 -694 0
-204 -729 0
-204 -764 0
-204 -799 0
-204 -834 0
-204 -869 0
-204 -904 0
-204 -939 0
-204 -974 0
-204 -1009 0
-204 -1044 0
-204 -1079 0
-204 -1114 0
-204 -1149 0
-204 -1184 0
-204 -1219 0
-204 -1254 0
-239 -274 0
-239 -309 0
-239 -344 0
-239 -379 0
-239 -414 0
-239 -449 0
-239 -484 0
-239 -519 0
-239 -554 0
-239 -589 0
-239 -624 0
-239 -659 0
-239 -694 0
-239 -729 0
-239 -764 0
-239 -799 0
-239 -834 0
-239 -869 0
-239 -904 0
-239 -939 0
-239 -974 0
-239 -1009 0
-239 -1044 0
-239 -1079 0
-239 -1114 0
-239 -1149 0
-239 -1184 0
-239 -1219 0
-239 -1254 0
-274 -309 0
-274 -344 0
-274 -379 0
-274 -414 0
-274 -449 0
-274 -484 0
-274 -519 0
-274 -554 0
-274 -589 0
-274 -624 0
-274 -659 0
-274 -694 0
-274 -729 0
-274 -764 0
-274 -799 0
-274 -834 0
-274 -869 0
-274 -904 0
-274 -939 0
-274 -974 0
-274 -1009 0
-274 -1044 0
-274 -1079 0
-274 -1114 0
-274 -1149 0
-274 -1184 0
-274 -1219 0
-274 -1254 0
-309 -344 0
-309 -379 0
-309 -414 0
-309 -449 0
-309 -484 0
-309 -519 0
-309 -554 0
-309 -589 0
-309 -624 0
-309 -659 0
-309 -694 0
-309 -729 0
-309 -764 0
-309 -799 0
-309 -834 0
-309 -869 0
-309 -904 0
-309 -939 0
-309 -974 0
-309 -1009 0
-309 -1044 0
-309 -1079 0
-309 -1114 0
-309 -1149 0
-309 -1184 0
-309 -1219 0
-309 -1254 0
-344 -379 0
-344 -414 0
-344 -449 0
-344 -484 0
-344 -519 0
-344 -554 0
-344 -589 0
-344 -624 0
-344 -659 0
-344 -694 0
-344 -729 0
-344 -764 0
-344 -799 0
-344 -834 0
-344 -869 0
-344 -904 0
-344 -939 0
-344 -974 0
-344 -1009 0
-344 -1044 0
-344 -1079 0
-344 -1114 0
-344 -1149 0
-344 -1184 0
-344 -1219 0
-344 -1254 0
-379 -414 0
-379 -449 0
-379 -484 0
-379 -519 0
-379 -554 0
-379 -589 0
-379 -624 0
-379 -659 0
-379 -694 0
-379 -729 0
-379 -764 0
-379 -799 0
-379 -834 0
-379 -869 0
-379 -904 0
-379 -939 0
-379 -974 0
-379 -1009 0
-379 -1044 0
-379 -1079 0
-379 -1114 0
-379 -1149 0
-379 -1184 0
-379 -1219 0
-379 -1254 0
-414 -449 0
-414 -484 0
-414 -519 0
-414 -554 0
-414 -589 0
-414 -624 0
-414 -659 0
-414 -694 0
-414 -729 0
-414 -764 0
-414 -799 0
-414 -834 0
-414 -869 0
-414 -904 0
-414 -939 0
-414 -974 0
-414 -1009 0
-414 -1044 0
-414 -1079 0
-414 -1114 0
-414 -1149 0
-414 -1184 0
-414 -1219 0
-414 -1254 0
-449 -484 0
-449 -519 0
-449 -554 0
-449 -589 0
-449 -624 0
-449 -659 0
-449 -694 0
-449 -729 0
-449 -764 0
-449 -799 0
-449 -834 0
-449 -869 0
-449 -904 0
-449 -939 0
-449 -974 0
-449 -1009 0
-449 -1044 0
-449 -1079 0
-449 -1114 0
-449 -1149 0
-449 -1184 0
-449 -1219 0
-449 -1254 0
-484 -519 0
-484 -554 0
-484 -589 0
-484 -624 0
-484 -659 0
-484 -694 0
-484 -729 0
-484 -764 0
-484 -799 0
-484 -834 0
-484 -869 0
-484 -904 0
-484 -939 0
-484 -974 0
-484 -1009 0
-484 -1044 0
-484 -1079 0
-484 -1114 0
-484 -1149 0
-484 -1184 0
-484 -1219 0
-484 -1254 0
-519 -554 0
-519 -589 0
-519 -624 0
-519 -659 0
-519 -694 0
-519 -729 0
-519 -764 0
-519 -799 0
-519 -834 0
-519 -869 0
-519 -904 0
-519 -939 0
-519 -974 0
-519 -1009 0
-519 -1044 0
-519 -1079 0
-519 -1114 0
-519 -1149 0
-519 -1184 0
-519 -1219 0
-519 -1254 0
-554 -589 0
-554 -624 0
-554 -659 0
-554 -694 0
-554 -729 0
-554 -764 0
-554 -799 0
-554 -834 0
-554 -869 0
-554 -904 0
-554 -939 0
-554 -974 0
-554 -1009 0
-554 -1044 0
-554 -1079 0
-554 -1114 0
-554 -1149 0
-554 -1184 0
-554 -1219 0
-554 -1254 0
-589 -624 0
-589 -659 0
-589 -694 0
-589 -729 0
-589 -764 0
-589 -799 0
-589 -834 0
-589 -869 0
-589 -904 0
-589 -939 0
-589 -974 0
-589 -1009 0
-589 -1044 0
-589 -1079 0
-589 -1114 0
-589 -1149 0
-589 -1184 0
-589 -1219 0
-589 -1254 0
-624 -659 0
-624 -694 0
-624 -729 0
-624 -764 0
-624 -799 0
-624 -834 0
-624 -869 0
-624 -904 0
-624 -939 0
-624 -974 0
-624 -1009 0
-624 -1044 0
-624 -1079 0
-624 -1114 0
-624 -1149 0
-624 -1184 0
-624 -1219 0
-624 -1254 0
-659 -694 0
-659 -729 0
-659 -764 0
-659 -799 0
-659 -834 0
-659 -869 0
-659 -904 0
-659 -939 0
-659 -974 0
-659 -1009 0
-659 -1044 0
-659 -1079 0
-659 -1114 0
-659 -1149 0
-659 -1184 0
-659 -1219 0
-659 -1254 0
-694 -729 0
-694 -764 0
-694 -799 0
-694 -834 0
-694 -869 0
-694 -904 0
-694 -939 0
-694 -974 0
-694 -1009 0
-694 -1044 0
-694 -1079 0
-694 -1114 0
-694 -1149 0
-694 -1184 0
-694 -1219 0
-694 -1254 0
-729 -764 0
-729 -799 0
-729 -834 0
-729 -869 0
-729 -904 0
-729 -939 0
-729 -974 0
-729 -1009 0
-729 -1044 0
-729 -1079 0
-729 -1114 0
-729 -1149 0
-729 -1184 0
-729 -1219 0
-729 -1254 0
-764 -799 0
-764 -834 0
-764 -869 0
-764 -904 0
-764 -939 0
-764 -974 0
-764 -1009 0
-764 -1044 0
-764 -1079 0
-764 -1114 0
-764 -1149 0
-764 -1184 0
-764 -1219 0
-764 -1254 0
-799 -834 0
-799 -869 0
-799 -904 0
-799 -939 0
-799 -974 0
-799 -1009 0
-799 -1044 0
-799 -1079 0
-799 -1114 0
-799 -1149 0
-799 -1184 0
-799 -1219 0
-799 -1254 0
-834 -869 0
-834 -904 0
-834 -939 0
-834 -974 0
-834 -1009 0
-834 -1044 0
-834 -1079 0
-834 -1114 0
-834 -1149 0
-834 -1184 0
-834 -1219 0
-834 -1254 0
-869 -904 0
-869 -939 0
-869 -974 0
-869 -1009 0
-869 -1044 0
-869 -1079 0
-869 -1114 0
-869 -1149 0
-869 -1184 0
-869 -1219 0
-869 -1254 0
-904 -939 0
-904 -974 0
-904 -1009 0
-904 -1044 0
-904 -1079 0
-904 -1114 0
-904 -1149 0
-904 -1184 0
-904 -1219 0
-904 -1254 0
-939 -974 0
-939 -1009 0
-939 -1044 0
-939 -1079 0
-939 -1114 0
-939 -1149 0
-939 -1184 0
-939 -1219 0
-939 -1254 0
-974 -1009 0
-974 -1044 0
-974 -1079 0
-974 -1114 0
-974 -1149 0
-974 -1184 0
-974 -1219 0
-974 -1254 0
-1009 -1044 0
-1009 -1079 0
-1009 -1114 0
-1009 -1149 0
-1009 -1184 0
-1009 -1219 0
-1009 -1254 0
-1044 -1079 0
-1044 -1114 0
-1044 -1149 0
-1044 -1184 0
-1044 -1219 0
-1044 -1254 0
-1079 -1114 0
-1079 -1149 0
-1079 -1184 0
-1079 -1219 0
-1079 -1254 0
-1114 -1149 0
-1114 -1184 0
-1114 -1219 0
-1114 -1254 0
-1149 -1184 0
-1149 -1219 0
-1149 -1254 0
-1184 -1219 0
-1184 -1254 0
-1219 -1254 0
-30 -65 0
-30 -100 0
-30 -135 0
-30 -170 0
-30 -205 0
-30 -240 0
-30 -275 0
-30 -310 0
-30 -345 0
-30 -380 0
-30 -415 0
-30 -450 0
-30 -485 0
-30 -520 0
-30 -555 0
-30 -590 0
-30 -625 0
-30 -660 0
-30 -695 0
-30 -730 0
-30 -765 0
-30 -800 0
-30 -835 0
-30 -870 0
-30 -905 0
-30 -940 0
-30 -975 0
-30 -1010 0
-30 -1045 0
-30 -1080 0
-30 -1115 0
-30 -1150 0
-30 -1185 0
-30 -1220 0
-30 -1255 0
-65 -100 0
-65 -135 0
-65 -170 0
-65 -205 0
-65 -240 0
-65 -275 0
-65 -310 0
-65 -345 0
-65 -380 0
-65 -415 0
-65 -450 0
-65 -485 0
-65 -520 0
-65 -555 0
-65 -590 0
-65 -625 0
-65 -660 0
-65 -695 0
-65 -730 0
-65 -765 0
-65 -800 0
-65 -835 0
-65 -870 0
-65 -905 0
-65 -940 0
-65 -975 0
-65 -1010 0
-65 -1045 0
-65 -1080 0
-65 -1115 0
-65 -1150 0
-65 -1185 0
-65 -1220 0
-65 -1255 0
-100 -135 0
-100 -170 0
-100 -205 0
-100 -240 0
-100 -275 0
-100 -310 0
-100 -345 0
-100 -380 0
-100 -415 0
-100 -450 0
-100 -485 0
-100 -520 0
-100 -555 0
-100 -590 0
-100 -625 0
-100 -660 0
-100 -695 0
-100 -730 0
-100 -765 0
-100 -800 0
-100 -835 0
-100 -870 0
-100 -905 0
-100 -940 0
-100 -975 0
-100 -1010 0
-100 -1045 0
-100 -1080 0
-100 -1115 0
-100 -1150 0
-100 -1185 0
-100 -1220 0
-100 -1255 0
-135 -170 0
-135 -205 0
-135 -240 0
-135 -275 0
-135 -310 0
-135 -345 0
-135 -380 0
-135 -415 0
-135 -450 0
-135 -485 0
-135 -520 0
-135 -555 0
-135 -590 0
-135 -625 0
-135 -660 0
-135 -695 0
-135 -730 0
-135 -765 0
-135 -800 0
-135 -835 0
-135 -870 0
-135 -905 0
-135 -940 0
-135 -975 0
-135 -1010 0
-135 -1045 0
-135 -1080 0
-135 -1115 0
-135 -1150 0
-135 -1185 0
-135 -1220 0
-135 -1255 0
-170 -205 0
-170 -240 0
-170 -275 0
-170 -310 0
-170 -345 0
-170 -380 0
-170 -415 0
-170 -450 0
-170 -485 0
-170 -520 0
-170 -555 0
-170 -590 0
-170 -625 0
-170 -660 0
-170 -695 0
-170 -730 0
-170 -765 0
-170 -800 0
-170 -835 0
-170 -870 0
-170 -905 0
-170 -940 0
-170 -975 0
-170 -1010 0
-170 -1045 0
-170 -1080 0
-170 -1115 0
-170 -1150 0
-170 -1185 0
-170 -1220 0
-170 -1255 0
-205 -240 0
-205 -275 0
-205 -310 0
-205 -345 0
-205 -380 0
-205 -415 0
-205 -450 0
-205 -485 0
-205 -520 0
-205 -555 0
-205 -590 0
-205 -625 0
-205 -660 0
-205 -695 0
-205 -730 0
-205 -765 0
-205 -800 0
-205 -835 0
-205 -870 0
-205 -905 0
-205 -940 0
-205 -975 0
-205 -1010 0
-205 -1045 0
-205 -1080 0
-205 -1115 0
-205 -1150 0
-205 -1185 0
-205 -1220 0
-205 -1255 0
-240 -275 0
-240 -310 0
-240 -345 0
-240 -380 0
-240 -415 0
-240 -450 0
-240 -485 0
-240 -520 0
-240 -555 0
-240 -590 0
-240 -625 0
-240 -660 0
-240 -695 0
-240 -730 0
-240 -765 0
-240 -800 0
-240 -835 0
-240 -870 0
-240 -905 0
-240 -940 0
-240 -975 0
-240 -1010 0
-240 -1045 0
-240 -1080 0
-240 -1115 0
-240 -1150 0
-240 -1185 0
-240 -1220 0
-240 -1255 0
-275 -310 0
-275 -345 0
-275 -380 0
-275 -415 0
-275 -450 0
-275 -485 0
-275 -520 0
-275 -555 0
-275 -590 0
-275 -625 0
-275 -660 0
-275 -695 0
-275 -730 0
-275 -765 0
-275 -800 0
-275 -835 0
-275 -870 0
-275 -905 0
-275 -940 0
-275 -975 0
-275 -1010 0
-275 -1045 0
-275 -1080 0
-275 -1115 0
-275 -1150 0
-275 -1185 0
-275 -1220 0
-275 -1255 0
-310 -345 0
-310 -380 0
-310 -415 0
-310 -450 0
-310 -485 0
-310 -520 0
-310 -555 0
-310 -590 0
-310 -625 0
-310 -660 0
-310 -695 0
-310 -730 0
-310 -765 0
-310 -800 0
-310 -835 0
-310 -870 0
-310 -905 0
-310 -940 0
-310 -975 0
-310 -1010 0
-310 -1045 0
-310 -1080 0
-310 -1115 0
-310 -1150 0
-310 -1185 0
-310 -1220 0
-310 -1255 0
-345 -380 0
-345 -415 0
-345 -450 0
-345 -485 0
-345 -520 0
-345 -555 0
-345 -590 0
-345 -625 0
-345 -660 0
-345 -695 0
-345 -730 0
-345 -765 0
-345 -800 0
-345 -835 0
-345 -870 0
-345 -905 0
-345 -940 0
-345 -975 0
-345 -1010 0
-345 -1045 0
-345 -1080 0
-345 -1115 0
-345 -1150 0
-345 -1185 0
-345 -1220 0
-345 -1255 0
-380 -415 0
-380 -450 0
-380 -485 0
-380 -520 0
-380 -555 0
-380 -590 0
-380 -625 0
-380 -660 0
-380 -695 0
-380 -730 0
-380 -765 0
-380 -800 0
-380 -835 0
-380 -870 0
-380 -905 0
-380 -940 0
-380 -975 0
-380 -1010 0
-380 -1045 0
-380 -1080 0
-380 -1115 0
-380 -1150 0
-380 -1185 0
-380 -1220 0
-380 -1255 0
-415 -450 0
-415 -485 0
-415 -520 0
-415 -555 0
-415 -590 0
-415 -625 0
-415 -660 0
-415 -695 0
-415 -730 0
-415 -765 0
-415 -800 0
-415 -835 0
-415 -870 0
-415 -905 0
-415 -940 0
-415 -975 0
-415 -1010 0
-415 -1045 0
-415 -1080 0
-415 -1115 0
-415 -1150 0
-415 -1185 0
-415 -1220 0
-415 -1255 0
-450 -485 0
-450 -520 0
-450 -555 0
-450 -590 0
-450 -625 0
-450 -660 0
-450 -695 0
-450 -730 0
-450 -765 0
-450 -800 0
-450 -835 0
-450 -870 0
-450 -905 0
-450 -940 0
-450 -975 0
-450 -1010 0
-450 -1045 0
-450 -1080 0
-450 -1115 0
-450 -1150 0
-450 -1185 0
-450 -1220 0
-450 -1255 0
-485 -520 0
-485 -555 0
-485 -590 0
-485 -625 0
-485 -660 0
-485 -695 0
-485 -730 0
-485 -765 0
-485 -800 0
-485 -835 0
-485 -870 0
-485 -905 0
-485 -940 0
-485 -975 0
-485 -1010 0
-485 -1045 0
-485 -1080 0
-485 -1115 0
-485 -1150 0
-485 -1185 0
-485 -1220 0
-485 -1255 0
-520 -555 0
-520 -590 0
-520 -625 0
-520 -660 0
-520 -695 0
-520 -730 0
-520 -765 0
-520 -800 0
-520 -835 0
-520 -870 0
-520 -905 0
-520 -940 0
-520 -975 0
-520 -1010 0
-520 -1045 0
-520 -1080 0
-520 -1115 0
-520 -1150 0
-520 -1185 0
-520 -1220 0
-520 -1255 0
-555 -590 0
-555 -625 0
-555 -660 0
-555 -695 0
-555 -730 0
-555 -765 0
-555 -800 0
-555 -835 0
-555 -870 0
-555 -905 0
-555 -940 0
-555 -975 0
-555 -1010 0
-555 -1045 0
-555 -1080 0
-555 -1115 0
-555 -1150 0
-555 -1185 0
-555 -1220 0
-555 -1255 0
-590 -625 0
-590 -660 0
-590 -695 0
-590 -730 0
-590 -765 0
-590 -800 0
-590 -835 0
-590 -870 0
-590 -905 0
-590 -940 0
-590 -975 0
-590 -1010 0
-590 -1045 0
-590 -1080 0
-590 -1115 0
-590 -1150 0
-590 -1185 0
-590 -1220 0
-590 -1255 0
-625 -660 0
-625 -695 0
-625 -730 0
-625 -765 0
-625 -800 0
-625 -835 0
-625 -870 0
-625 -905 0
-625 -940 0
-625 -975 0
-625 -1010 0
-625 -1045 0
-625 -1080 0
-625 -1115 0
-625 -1150 0
-625 -1185 0
-625 -1220 0
-625 -1255 0
-660 -695 0
-660 -730 0
-660 -765 0
-660 -800 0
-660 -835 0
-660 -870 0
-660 -905 0
-660 -940 0
-660 -975 0
-660 -1010 0
-660 -1045 0
-660 -1080 0
-660 -1115 0
-660 -1150 0
-660 -1185 0
-660 -1220 0
-660 -1255 0
-695 -730 0
-695 -765 0
-695 -800 0
-695 -835 0
-695 -870 0
-695 -905 0
-695 -940 0
-695 -975 0
-695 -1010 0
-695 -1045 0
-695 -1080 0
-695 -1115 0
-695 -1150 0
-695 -1185 0
-695 -1220 0
-695 -1255 0
-730 -765 0
-730 -800 0
-730 -835 0
-730 -870 0
-730 -905 0
-730 -940 0
-730 -975 0
-730 -1010 0
-730 -1045 0
-730 -1080 0
-730 -1115 0
-730 -1150 0
-730 -1185 0
-730 -1220 0
-730 -1255 0
-765 -800 0
-765 -835 0
-765 -870 0
-765 -905 0
-765 -940 0
-765 -975 0
-765 -1010 0
-765 -1045 0
-765 -1080 0
-765 -1115 0
-765 -1150 0
-765 -1185 0
-765 -1220 0
-765 -1255 0
-800 -835 0
-800 -870 0
-800 -905 0
-800 -940 0
-800 -975 0
-800 -1010 0
-800 -1045 0
-800 -1080 0
-800 -1115 0
-800 -1150 0
-800 -1185 0
-800 -1220 0
-800 -1255 0
-835 -870 0
-835 -905 0
-835 -940 0
-835 -975 0
-835 -1010 0
-835 -1045 0
-835 -1080 0
-835 -1115 0
-835 -1150 0
-835 -1185 0
-835 -1220 0
-835 -1255 0
-870 -905 0
-870 -940 0
-870 -975 0
-870 -1010 0
-870 -1045 0
-870 -1080 0
-870 -1115 0
-870 -1150 0
-870 -1185 0
-870 -1220 0
-870 -1255 0
-905 -940 0
-905 -975 0
-905 -1010 0
-905 -1045 0
-905 -1080 0
-905 -1115 0
-905 -1150 0
-905 -1185 0
-905 -1220 0
-905 -1255 0
-940 -975 0
-940 -1010 0
-940 -1045 0
-940 -1080 0
-940 -1115 0
-940 -1150 0
-940 -1185 0
-940 -1220 0
-940 -1255 0
-975 -1010 0
-975 -1045 0
-975 -1080 0
-975 -1115 0
-975 -1150 0
-975 -1185 0
-975 -1220 0
-975 -1255 0
-1010 -1045 0
-1010 -1080 0
-1010 -1115 0
-1010 -1150 0
-1010 -1185 0
-1010 -1220 0
-1010 -1255 0
-1045 -1080 0
-1045 -1115 0
-1045 -1150 0
-1045 -1185 0
-1045 -1220 0
-1045 -1255 0
-1080 -1115 0
-1080 -1150 0
-1080 -1185 0
-1080 -1220 0
-1080 -1255 0
-1115 -1150 0
-1115 -1185 0
-1115 -1220 0
-1115 -1255 0
-1150 -1185 0
-1150 -1220 0
-1150 -1255 0
-1185 -1220 0
-1185 -1255 0
-1220 -1255 0
-31 -66 0
-31 -101 0
-31 -136 0
-31 -171 0
-31 -206 0
-31 -241 0
-31 -276 0
-31 -311 0
-31 -346 0
-31 -381 0
-31 -416 0
-31 -451 0
-31 -486 0
-31 -521 0
-31 -556 0
-31 -591 0
-31 -626 0
-31 -661 0
-31 -696 0
-31 -731 0
-31 -766 0
-31 -801 0
-31 -836 0
-31 -871 0
-31 -906 0
-31 -941 0
-31 -976 0
-31 -1011 0
-31 -1046 0
-31 -1081 0
-31 -1116 0
-31 -1151 0
-31 -1186 0
-31 -1221 0
-31 -1256 0
-66 -101 0
-66 -136 0
-66 -171 0
-66 -206 0
-66 -241 0
-66 -276 0
-66 -311 0
-66 -346 0
-66 -381 0
-66 -416 0
-66 -451 0
-66 -486 0
-66 -521 0
-66 -556 0
-66 -591 0
-66 -626 0
-66 -661 0
-66 -696 0
-66 -731 0
-66 -766 0
-66 -801 0
-66 -836 0
-66 -871 0
-66 -906 0
-66 -941 0
-66 -976 0
-66 -1011 0
-66 -1046 0
-66 -1081 0
-66 -1116 0
-66 -1151 0
-66 -1186 0
-66 -1221 0
-66 -1256 0
-101 -136 0
-101 -171 0
-101 -206 0
-101 -241 0
-101 -276 0
-101 -311 0
-101 -346 0
-101 -381 0
-101 -416 0
-101 -451 0
-101 -486 0
-101 -521 0
-101 -556 0
-101 -591 0
-101 -626 0
-101 -661 0
-101 -696 0
-101 -731 0
-101 -766 0
-101 -801 0
-101 -836 0
-101 -871 0
-101 -906 0
-101 -941 0
-101 -976 0
-101 -1011 0
-101 -1046 0
-101 -1081 0
-101 -1116 0
-101 -1151 0
-101 -1186 0
-101 -1221 0
-101 -1256 0
-136 -171 0
-136 -206 0
-136 -241 0
-136 -276 0
-136 -311 0
-136 -346 0
-136 -381 0
-136 -416 0
-136 -451 0
-136 -486 0
-136 -521 0
-136 -556 0
-136 -591 0
-136 -626 0
-136 -661 0
-136 -696 0
-136 -731 0
-136 -766 0
-136 -801 0
-136 -836 0
-136 -871 0
-136 -906 0
-136 -941 0
-136 -976 0
-136 -1011 0
-136 -1046 0
-136 -1081 0
-136 -1116 0
-136 -1151 0
-136 -1186 0
-136 -1221 0
-136 -1256 0
-171 -206 0
-171 -241 0
-171 -276 0
-171 -311 0
-171 -346 0
-171 -381 0
-171 -416 0
-171 -451 0
-171 -486 0
-171 -521 0
-171 -556 0
-171 -591 0
-171 -626 0
-171 -661 0
-171 -696 0
-171 -731 0
-171 -766 0
-171 -801 0
-171 -836 0
-171 -871 0
-171 -906 0
-171 -941 0
-171 -976 0
-171 -1011 0
-171 -1046 0
-171 -1081 0
-171 -1116 0
-171 -1151 0
-171 -1186 0
-171 -1221 0
-171 -1256 0
-206 -241 0
-206 -276 0
-206 -311 0
-206 -346 0
-206 -381 0
-206 -416 0
-206 -451 0
-206 -486 0
-206 -521 0
-206 -556 0
-206 -591 0
-206 -626 0
-206 -661 0
-206 -696 0
-206 -731 0
-206 -766 0
-206 -801 0
-206 -836 0
-206 -871 0
-206 -906 0
-206 -941 0
-206 -976 0
-206 -1011 0
-206 -1046 0
-206 -1081 0
-206 -1116 0
-206 -1151 0
-206 -1186 0
-206 -1221 0
-206 -1256 0
-241 -276 0
-241 -311 0
-241 -346 0
-241 -381 0
-241 -416 0
-241 -451 0
-241 -486 0
-241 -521 0
-241 -556 0
-241 -591 0
-241 -626 0
-241 -661 0
-241 -696 0
-241 -731 0
-241 -766 0
-241 -801 0
-241 -836 0
-241 -871 0
-241 -906 0
-241 -941 0
-241 -976 0
-241 -1011 0
-241 -1046 0
-241 -1081 0
-241 -1116 0
-241 -1151 0
-241 -1186 0
-241 -1221 0
-241 -1256 0
-276 -311 0
-276 -346 0
-276 -381 0
-276 -416 0
-276 -451 0
-276 -486 0
-276 -521 0
-276 -556 0
-276 -591 0
-276 -626 0
-276 -661 0
-276 -696 0
-276 -731 0
-276 -766 0
-276 -801 0
-276 -836 0
-276 -871 0
-276 -906 0
-276 -941 0
-276 -976 0
-276 -1011 0
-276 -1046 0
-276 -1081 0
-276 -1116 0
-276 -1151 0
-276 -1186 0
-276 -1221 0
-276 -1256 0
-311 -346 0
-311 -381 0
-311 -416 0
-311 -451 0
-311 -486 0
-311 -521 0
-311 -556 0
-311 -591 0
-311 -626 0
-311 -661 0
-311 -696 0
-311 -731 0
-311 -766 0
-311 -801 0
-311 -836 0
-311 -871 0
-311 -906 0
-311 -941 0
-311 -976 0
-311 -1011 0
-311 -1046 0
-311 -1081 0
-311 -1116 0
-311 -1151 0
-311 -1186 0
-311 -1221 0
-311 -1256 0
-346 -381 0
-346 -416 0
-346 -451 0
-346 -486 0
-346 -521 0
-346 -556 0
-346 -591 0
-346 -626 0
-346 -661 0
-346 -696 0
-346 -731 0
-346 -766 0
-346 -801 0
-346 -836 0
-346 -871 0
-346 -906 0
-346 -941 0
-346 -976 0
-346 -1011 0
-346 -1046 0
-346 -1081 0
-346 -1116 0
-346 -1151 0
-346 -1186 0
-346 -1221 0
-346 -1256 0
-381 -416 0
-381 -451 0
-381 -486 0
-381 -521 0
-381 -556 0
-381 -591 0
-381 -626 0
-381 -661 0
-381 -696 0
-381 -731 0
-381 -766 0
-381 -801 0
-381 -836 0
-381 -871 0
-381 -906 0
-381 -941 0
-381 -976 0
-381 -1011 0
-381 -1046 0
-381 -1081 0
-381 -1116 0
-381 -1151 0
-381 -1186 0
-381 -1221 0
-381 -1256 0
-416 -451 0
-416 -486 0
-416 -521 0
-416 -556 0
-416 -591 0
-416 -626 0
-416 -661 0
-416 -696 0
-416 -731 0
-416 -766 0
-416 -801 0
-416 -836 0
-416 -871 0
-416 -906 0
-416 -941 0
-416 -976 0
-416 -1011 0
-416 -1046 0
-416 -1081 0
-416 -1116 0
-416 -1151 0
-416 -1186 0
-416 -1221 0
-416 -1256 0
-451 -486 0
-451 -521 0
-451 -556 0
-451 -591 0
-451 -626 0
-451 -661 0
-451 -696 0
-451 -731 0
-451 -766 0
-451 -801 0
-451 -836 0
-451 -871 0
-451 -906 0
-451 -941 0
-451 -976 0
-451 -1011 0
-451 -1046 0
-451 -1081 0
-451 -1116 0
-451 -1151 0
-451 -1186 0
-451 -1221 0
-451 -1256 0
-486 -521 0
-486 -556 0
-486 -591 0
-486 -626 0
-486 -661 0
-486 -696 0
-486 -731 0
-486 -766 0
-486 -801 0
-486 -836 0
-486 -871 0
-486 -906 0
-486 -941 0
-486 -976 0
-486 -1011 0
-486 -1046 0
-486 -1081 0
-486 -1116 0
-486 -1151 0
-486 -1186 0
-486 -1221 0
-486 -1256 0
-521 -556 0
-521 -591 0
-521 -626 0
-521 -661 0
-521 -696 0
-521 -731 0
-521 -766 0
-521 -801 0
-521 -836 0
-521 -871 0
-521 -906 0
-521 -941 0
-521 -976 0
-521 -1011 0
-521 -1046 0
-521 -1081 0
-521 -1116 0
-521 -1151 0
-521 -1186 0
-521 -1221 0
-521 -1256 0
-556 -591 0
-556 -626 0
-556 -661 0
-556 -696 0
-556 -731 0
-556 -766 0
-556 -801 0
-556 -836 0
-556 -871 0
-556 -906 0
-556 -941 0
-556 -976 0
-556 -1011 0
-556 -1046 0
-556 -1081 0
-556 -1116 0
-556 -1151 0
-556 -1186 0
-556 -1221 0
-556 -1256 0
-591 -626 0
-591 -661 0
-591 -696 0
-591 -731 0
-591 -766 0
-591 -801 0
-591 -836 0
-591 -871 0
-591 -906 0
-591 -941 0
-591 -976 0
-591 -1011 0
-591 -1046 0
-591 -1081 0
-591 -1116 0
-591 -1151 0
-591 -1186 0
-591 -1221 0
-591 -1256 0
-626 -661 0
-626 -696 0
-626 -731 0
-626 -766 0
-626 -801 0
-626 -836 0
-626 -871 0
-626 -906 0
-626 -941 0
-626 -976 0
-626 -1011 0
-626 -1046 0
-626 -1081 0
-626 -1116 0
-626 -1151 0
-626 -1186 0
-626 -1221 0
-626 -1256 0
-661 -696 0
-661 -731 0
-661 -766 0
-661 -801 0
-661 -836 0
-661 -871 0
-661 -906 0
-661 -941 0
-661 -976 0
-661 -1011 0
-661 -1046 0
-661 -1081 0
-661 -1116 0
-661 -1151 0
-661 -1186 0
-661 -1221 0
-661 -1256 0
-696 -731 0
-696 -766 0
-696 -801 0
-696 -836 0
-696 -871 0
-696 -906 0
-696 -941 0
-696 -976 0
-696 -1011 0
-696 -1046 0
-696 -1081 0
-696 -1116 0
-696 -1151 0
-696 -1186 0
-696 -1221 0
-696 -1256 0
-731 -766 0
-731 -801 0
-731 -836 0
-731 -871 0
-731 -906 0
-731 -941 0
-731 -976 0
-731 -1011 0
-731 -1046 0
-731 -1081 0
-731 -1116 0
-731 -1151 0
-731 -1186 0
-731 -1221 0
-731 -1256 0
-766 -801 0
-766 -836 0
-766 -871 0
-766 -906 0
-766 -941 0
-766 -976 0
-766 -1011 0
-766 -1046 0
-766 -1081 0
-766 -1116 0
-766 -1151 0
-766 -1186 0
-766 -1221 0
-766 -1256 0
-801 -836 0
-801 -871 0
-801 -906 0
-801 -941 0
-801 -976 0
-801 -1011 0
-801 -1046 0
-801 -1081 0
-801 -1116 0
-801 -1151 0
-801 -1186 0
-801 -1221 0
-801 -1256 0
-836 -871 0
-836 -906 0
-836 -941 0
-836 -976 0
-836 -1011 0
-836 -1046 0
-836 -1081 0
-836 -1116 0
-836 -1151 0
-836 -1186 0
-836 -1221 0
-836 -1256 0
-871 -906 0
-871 -941 0
-871 -976 0
-871 -1011 0
-871 -1046 0
-871 -1081 0
-871 -1116 0
-871 -1151 0
-871 -1186 0
-871 -1221 0
-871 -1256 0
-906 -941 0
-906 -976 0
-906 -1011 0
-906 -1046 0
-906 -1081 0
-906 -1116 0
-906 -1151 0
-906 -1186 0
-906 -1221 0
-906 -1256 0
-941 -976 0
-941 -1011 0
-941 -1046 0
-941 -1081 0
-941 -1116 0
-941 -1151 0
-941 -1186 0
-941 -1221 0
-941 -1256 0
-976 -1011 0
-976 -1046 0
-976 -1081 0
-976 -1116 0
-976 -1151 0
-976 -1186 0
-976 -1221 0
-976 -1256 0
-1011 -1046 0
-1011 -1081 0
-1011 -1116 0
-1011 -1151 0
-1011 -1186 0
-1011 -1221 0
-1011 -1256 0
-1046 -1081 0
-1046 -1116 0
-1046 -1151 0
-1046 -1186 0
-1046 -1221 0
-1046 -1256 0
-1081 -1116 0
-1081 -1151 0
-1081 -1186 0
-1081 -1221 0
-1081 -1256 0
-1116 -1151 0
-1116 -1186 0
-1116 -1221 0
-1116 -1256 0
-1151 -1186 0
-1151 -1221 0
-1151 -1256 0
-1186 -1221 0
-1186 -1256 0
-1221 -1256 0
-32 -67 0
-32 -102 0
-32 -137 0
-32 -172 0
-32 -207 0
-32 -242 0
-32 -277 0
-32 -312 0
-32 -347 0
-32 -382 0
-32 -417 0
-32 -452 0
-32 -487 0
-32 -522 0
-32 -557 0
-32 -592 0
-32 -627 0
-32 -662 0
-32 -697 0
-32 -732 0
-32 -767 0
-32 -802 0
-32 -837 0
-32 -872 0
-32 -907 0
-32 -942 0
-32 -977 0
-32 -1012 0
-32 -1047 0
-32 -1082 0
-32 -1117 0
-32 -1152 0
-32 -1187 0
-32 -1222 0
-32 -1257 0
-67 -102 0
-67 -137 0
-67 -172 0
-67 -207 0
-67 -242 0
-67 -277 0
-67 -312 0
-67 -347 0
-67 -382 0
-67 -417 0
-67 -452 0
-67 -487 0
-67 -522 0
-67 -557 0
-67 -592 0
-67 -627 0
-67 -662 0
-67 -697 0
-67 -732 0
-67 -767 0
-67 -802 0
-67 -837 0
-67 -872 0
-67 -907 0
-67 -942 0
-67 -977 0
-67 -1012 0
-67 -1047 0
-67 -1082 0
-67 -1117 0
-67 -1152 0
-67 -1187 0
-67 -1222 0
-67 -1257 0
-102 -137 0
-102 -172 0
-102 -207 0
-102 -242 0
-102 -277 0
-102 -312 0
-102 -347 0
-102 -382 0
-102 -417 0
-102 -452 0
-102 -487 0
-102 -522 0
-102 -557 0
-102 -592 0
-102 -627 0
-102 -662 0
-102 -697 0
-102 -732 0
-102 -767 0
-102 -802 0
-102 -837 0
-102 -872 0
-102 -907 0
-102 -942 0
-102 -977 0
-102 -1012 0
-102 -1047 0
-102 -1082 0
-102 -1117 0
-102 -1152 0
-102 -1187 0
-102 -1222 0
-102 -1257 0
-137 -172 0
-137 -207 0
-137 -242 0
-137 -277 0
-137 -312 0
-137 -347 0
-137 -382 0
-137 -417 0
-137 -452 0
-137 -487 0
-137 -522 0
-137 -557 0
-137 -592 0
-137 -627 0
-137 -662 0
-137 -697 0
-137 -732 0
-137 -767 0
-137 -802 0
-137 -837 0
-137 -872 0
-137 -907 0
-137 -942 0
-137 -977 0
-137 -1012 0
-137 -1047 0
-137 -1082 0
-137 -1117 0
-137 -1152 0
-137 -1187 0
-137 -1222 0
-137 -1257 0
-172 -207 0
-172 -242 0
-172 -277 0
-172 -312 0
-172 -347 0
-172 -382 0
-172 -417 0
-172 -452 0
-172 -487 0
-172 -522 0
-172 -557 0
-172 -592 0
-172 -627 0
-172 -662 0
-172 -697 0
-172 -732 0
-172 -767 0
-172 -802 0
-172 -837 0
-172 -872 0
-172 -907 0
-172 -942 0
-172 -977 0
-172 -1012 0
-172 -1047 0
-172 -1082 0
-172 -1117 0
-172 -1152 0
-172 -1187 0
-172 -1222 0
-172 -1257 0
-207 -242 0
-207 -277 0
-207 -312 0
-207 -347 0
-207 -382 0
-207 -417 0
-207 -452 0
-207 -487 0
-207 -522 0
-207 -557 0
-207 -592 0
-207 -627 0
-207 -662 0
-207 -697 0
-207 -732 0
-207 -767 0
-207 -802 0
-207 -837 0
-207 -872 0
-207 -907 0
-207 -942 0
-207 -977 0
-207 -1012 0
-207 -1047 0
-207 -1082 0
-207 -1117 0
-207 -1152 0
-207 -1187 0
-207 -1222 0
-207 -1257 0
-242 -277 0
-242 -312 0
-242 -347 0
-242 -382 0
-242 -417 0
-242 -452 0
-242 -487 0
-242 -522 0
-242 -557 0
-242 -592 0
-242 -627 0
-242 -662 0
-242 -697 0
-242 -732 0
-242 -767 0
-242 -802 0
-242 -837 0
-242 -872 0
-242 -907 0
-242 -942 0
-242 -977 0
-242 -1012 0
-242 -1047 0
-242 -1082 0
-242 -1117 0
-242 -1152 0
-242 -1187 0
-242 -1222 0
-242 -1257 0
-277 -312 0
-277 -347 0
-277 -382 0
-277 -417 0
-277 -452 0
-277 -487 0
-277 -522 0
-277 -557 0
-277 -592 0
-277 -627 0
-277 -662 0
-277 -697 0
-277 -732 0
-277 -767 0
-277 -802 0
-277 -837 0
-277 -872 0
-277 -907 0
-277 -942 0
-277 -977 0
-277 -1012 0
-277 -1047 0
-277 -1082 0
-277 -1117 0
-277 -1152 0
-277 -1187 0
-277 -1222 0
-277 -1257 0
-312 -347 0
-312 -382 0
-312 -417 0
-312 -452 0
-312 -487 0
-312 -522 0
-312 -557 0
-312 -592 0
-312 -627 0
-312 -662 0
-312 -697 0
-312 -732 0
-312 -767 0
-312 -802 0
-312 -837 0
-312 -872 0
-312 -907 0
-312 -942 0
-312 -977 0
-312 -1012 0
-312 -1047 0
-312 -1082 0
-312 -1117 0
-312 -1152 0
-312 -1187 0
-312 -1222 0
-312 -1257 0
-347 -382 0
-347 -417 0
-347 -452 0
-347 -487 0
-347 -522 0
-347 -557 0
-347 -592 0
-347 -627 0
-347 -662 0
-347 -697 0
-347 -732 0
-347 -767 0
-347 -802 0
-347 -837 0
-347 -872 0
-347 -907 0
-347 -942 0
-347 -977 0
-347 -1012 0
-347 -1047 0
-347 -1082 0
-347 -1117 0
-347 -1152 0
-347 -1187 0
-347 -1222 0
-347 -1257 0
-382 -417 0
-382 -452 0
-382 -487 0
-382 -522 0
-382 -557 0
-382 -592 0
-382 -627 0
-382 -662 0
-382 -697 0
-382 -732 0
-382 -767 0
-382 -802 0
-382 -837 0
-382 -872 0
-382 -907 0
-382 -942 0
-382 -977 0
-382 -1012 0
-382 -1047 0
-382 -1082 0
-382 -1117 0
-382 -1152 0
-382 -1187 0
-382 -1222 0
-382 -1257 0
-417 -452 0
-417 -487 0
-417 -522 0
-417 -557 0
-417 -592 0
-417 -627 0
-417 -662 0
-417 -697 0
-417 -732 0
-417 -767 0
-417 -802 0
-417 -837 0
-417 -872 0
-417 -907 0
-417 -942 0
-417 -977 0
-417 -1012 0
-417 -1047 0
-417 -1082 0
-417 -1117 0
-417 -1152 0
-417 -1187 0
-417 -1222 0
-417 -1257 0
-452 -487 0
-452 -522 0
-452 -557 0
-452 -592 0
-452 -627 0
-452 -662 0
-452 -697 0
-452 -732 0
-452 -767 0
-452 -802 0
-452 -837 0
-452 -872 0
-452 -907 0
-452 -942 0
-452 -977 0
-452 -1012 0
-452 -1047 0
-452 -1082 0
-452 -1117 0
-452 -1152 0
-452 -1187 0
-452 -1222 0
-452 -1257 0
-487 -522 0
-487 -557 0
-487 -592 0
-487 -627 0
-487 -662 0
-487 -697 0
-487 -732 0
-487 -767 0
-487 -802 0
-487 -837 0
-487 -872 0
-487 -907 0
-487 -942 0
-487 -977 0
-487 -1012 0
-487 -1047 0
-487 -1082 0
-487 -1117 0
-487 -1152 0
-487 -1187 0
-487 -1222 0
-487 -1257 0
-522 -557 0
-522 -592 0
-522 -627 0
-522 -662 0
-522 -697 0
-522 -732 0
-522 -767 0
-522 -802 0
-522 -837 0
-522 -872 0
-522 -907 0
-522 -942 0
-522 -977 0
-522 -1012 0
-522 -1047 0
-522 -1082 0
-522 -1117 0
-522 -1152 0
-522 -1187 0
-522 -1222 0
-522 -1257 0
-557 -592 0
-557 -627 0
-557 -662 0
-557 -697 0
-557 -732 0
-557 -767 0
-557 -802 0
-557 -837 0
-557 -872 0
-557 -907 0
-557 -942 0
-557 -977 0
-557 -1012 0
-557 -1047 0
-557 -1082 0
-557 -1117 0
-557 -1152 0
-557 -1187 0
-557 -1222 0
-557 -1257 0
-592 -627 0
-592 -662 0
-592 -697 0
-592 -732 0
-592 -767 0
-592 -802 0
-592 -837 0
-592 -872 0
-592 -907 0
-592 -942 0
-592 -977 0
-592 -1012 0
-592 -1047 0
-592 -1082 0
-592 -1117 0
-592 -1152 0
-592 -1187 0
-592 -1222 0
-592 -1257 0
-627 -662 0
-627 -697 0
-627 -732 0
-627 -767 0
-627 -802 0
-627 -837 0
-627 -872 0
-627 -907 0
-627 -942 0
-627 -977 0
-627 -1012 0
-627 -1047 0
-627 -1082 0
-627 -1117 0
-627 -1152 0
-627 -1187 0
-627 -1222 0
-627 -1257 0
-662 -697 0
-662 -732 0
-662 -767 0
-662 -802 0
-662 -837 0
-662 -872 0
-662 -907 0
-662 -942 0
-662 -977 0
-662 -1012 0
-662 -1047 0
-662 -1082 0
-662 -1117 0
-662 -1152 0
-662 -1187 0
-662 -1222 0
-662 -1257 0
-697 -732 0
-697 -767 0
-697 -802 0
-697 -837 0
-697 -872 0
-697 -907 0
-697 -942 0
-697 -977 0
-697 -1012 0
-697 -1047 0
-697 -1082 0
-697 -1117 0
-697 -1152 0
-697 -1187 0
-697 -1222 0
-697 -1257 0
-732 -767 0
-732 -802 0
-732 -837 0
-732 -872 0
-732 -907 0
-732 -942 0
-732 -977 0
-732 -1012 0
-732 -1047 0
-732 -1082 0
-732 -1117 0
-732 -1152 0
-732 -1187 0
-732 -1222 0
-732 -1257 0
-767 -802 0
-767 -837 0
-767 -872 0
-767 -907 0
-767 -942 0
-767 -977 0
-767 -1012 0
-767 -1047 0
-767 -1082 0
-767 -1117 0
-767 -1152 0
-767 -1187 0
-767 -1222 0
-767 -1257 0
-802 -837 0
-802 -872 0
-802 -907 0
-802 -942 0
-802 -977 0
-802 -1012 0
-802 -1047 0
-802 -1082 0
-802 -1117 0
-802 -1152 0
-802 -1187 0
-802 -1222 0
-802 -1257 0
-837 -872 0
-837 -907 0
-837 -942 0
-837 -977 0
-837 -1012 0
-837 -1047 0
-837 -1082 0
-837 -1117 0
-837 -1152 0
-837 -1187 0
-837 -1222 0
-837 -1257 0
-872 -907 0
-872 -942 0
-872 -977 0
-872 -1012 0
-872 -1047 0
-872 -1082 0
-872 -1117 0
-872 -1152 0
-872 -1187 0
-872 -1222 0
-872 -1257 0
-907 -942 0
-907 -977 0
-907 -1012 0
-907 -1047 0
-907 -1082 0
-907 -1117 0
-907 -1152 0
-907 -1187 0
-907 -1222 0
-907 -1257 0
-942 -977 0
-942 -1012 0
-942 -1047 0
-942 -1082 0
-942 -1117 0
-942 -1152 0
-942 -1187 0
-942 -1222 0
-942 -1257 0
-977 -1012 0
-977 -1047 0
-977 -1082 0
-977 -1117 0
-977 -1152 0
-977 -1187 0
-977 -1222 0
-977 -1257 0
-1012 -1047 0
-1012 -1082 0
-1012 -1117 0
-1012 -1152 0
-1012 -1187 0
-1012 -1222 0
-1012 -1257 0
-1047 -1082 0
-1047 -1117 0
-1047 -1152 0
-1047 -1187 0
-1047 -1222 0
-1047 -1257 0
-1082 -1117 0
-1082 -1152 0
-1082 -1187 0
-1082 -1222 0
-1082 -1257 0
-1117 -1152 0
-1117 -1187 0
-1117 -1222 0
-1117 -1257 0
-1152 -1187 0
-1152 -1222 0
-1152 -1257 0
-1187 -1222 0
-1187 -1257 0
-1222 -1257 0
-33 -68 0
-33 -103 0
-33 -138 0
-33 -173 0
-33 -208 0
-33 -243 0
-33 -278 0
-33 -313 0
-33 -348 0
-33 -383 0
-33 -418 0
-33 -453 0
-33 -488 0
-33 -523 0
-33 -558 0
-33 -593 0
-33 -628 0
-33 -663 0
-33 -698 0
-33 -733 0
-33 -768 0
-33 -803 0
-33 -838 0
-33 -873 0
-33 -908 0
-33 -943 0
-33 -978 0
-33 -1013 0
-33 -1048 0
-33 -1083 0
-33 -1118 0
-33 -1153 0
-33 -1188 0
-33 -1223 0
-33 -1258 0
-68 -103 0
-68 -138 0
-68 -173 0
-68 -208 0
-68 -243 0
-68 -278 0
-68 -313 0
-68 -348 0
-68 -383 0
-68 -418 0
-68 -453 0
-68 -488 0
-68 -523 0
-68 -558 0
-68 -593 0
-68 -628 0
-68 -663 0
-68 -698 0
-68 -733 0
-68 -768 0
-68 -803 0
-68 -838 0
-68 -873 0
-68 -908 0
-68 -943 0
-68 -978 0
-68 -1013 0
-68 -1048 0
-68 -1083 0
-68 -1118 0
-68 -1153 0
-68 -1188 0
-68 -1223 0
-68 -1258 0
-103 -138 0
-103 -173 0
-103 -208 0
-103 -243 0
-103 -278 0
-103 -313 0
-103 -348 0
-103 -383 0
-103 -418 0
-103 -453 0
-103 -488 0
-103 -523 0
-103 -558 0
-103 -593 0
-103 -628 0
-103 -663 0
-103 -698 0
-103 -733 0
-103 -768 0
-103 -803 0
-103 -838 0
-103 -873 0
-103 -908 0
-103 -943 0
-103 -978 0
-103 -1013 0
-103 -1048 0
-103 -1083 0
-103 -1118 0
-103 -1153 0
-103 -1188 0
-103 -1223 0
-103 -1258 0
-138 -173 0
-138 -208 0
-138 -243 0
-138 -278 0
-138 -313 0
-138 -348 0
-138 -383 0
-138 -418 0
-138 -453 0
-138 -488 0
-138 -523 0
-138 -558 0
-138 -593 0
-138 -628 0
-138 -663 0
-138 -698 0
-138 -733 0
-138 -768 0
-138 -803 0
-138 -838 0
-138 -873 0
-138 -908 0
-138 -943 0
-138 -978 0
-138 -1013 0
-138 -1048 0
-138 -1083 0
-138 -1118 0
-138 -1153 0
-138 -1188 0
-138 -1223 0
-138 -1258 0
-173 -208 0
-173 -243 0
-173 -278 0
-173 -313 0
-173 -348 0
-173 -383 0
-173 -418 0
-173 -453 0
-173 -488 0
-173 -523 0
-173 -558 0
-173 -593 0
-173 -628 0
-173 -663 0
-173 -698 0
-173 -733 0
-173 -768 0
-173 -803 0
-173 -838 0
-173 -873 0
-173 -908 0
-173 -943 0
-173 -978 0
-173 -1013 0
-173 -1048 0
-173 -1083 0
-173 -1118 0
-173 -1153 0
-173 -1188 0
-173 -1223 0
-173 -1258 0
-208 -243 0
-208 -278 0
-208 -313 0
-208 -348 0
-208 -383 0
-208 -418 0
-208 -453 0
-208 -488 0
-208 -523 0
-208 -558 0
-208 -593 0
-208 -628 0
-208 -663 0
-208 -698 0
-208 -733 0
-208 -768 0
-208 -803 0
-208 -838 0
-208 -873 0
-208 -908 0
-208 -943 0
-208 -978 0
-208 -1013 0
-208 -1048 0
-208 -1083 0
-208 -1118 0
-208 -1153 0
-208 -1188 0
-208 -1223 0
-208 -1258 0
-243 -278 0
-243 -313 0
-243 -348 0
-243 -383 0
-243 -418 0
-243 -453 0
-243 -488 0
-243 -523 0
-243 -558 0
-243 -593 0
-243 -628 0
-243 -663 0
-243 -698 0
-243 -733 0
-243 -768 0
-243 -803 0
-243 -838 0
-243 -873 0
-243 -908 0
-243 -943 0
-243 -978 0
-243 -1013 0
-243 -1048 0
-243 -1083 0
-243 -1118 0
-243 -1153 0
-243 -1188 0
-243 -1223 0
-243 -1258 0
-278 -313 0
-278 -348 0
-278 -383 0
-278 -418 0
-278 -453 0
-278 -488 0
-278 -523 0
-278 -558 0
-278 -593 0
-278 -628 0
-278 -663 0
-278 -698 0
-278 -733 0
-278 -768 0
-278 -803 0
-278 -838 0
-278 -873 0
-278 -908 0
-278 -943 0
-278 -978 0
-278 -1013 0
-278 -1048 0
-278 -1083 0
-278 -1118 0
-278 -1153 0
-278 -1188 0
-278 -1223 0
-278 -1258 0
-313 -348 0
-313 -383 0
-313 -418 0
-313 -453 0
-313 -488 0
-313 -523 0
-313 -558 0
-313 -593 0
-313 -628 0
-313 -663 0
-313 -698 0
-313 -733 0
-313 -768 0
-313 -803 0
-313 -838 0
-313 -873 0
-313 -908 0
-313 -943 0
-313 -978 0
-313 -1013 0
-313 -1048 0
-313 -1083 0
-313 -1118 0
-313 -1153 0
-313 -1188 0
-313 -1223 0
-313 -1258 0
-348 -383 0
-348 -418 0
-348 -453 0
-348 -488 0
-348 -523 0
-348 -558 0
-348 -593 0
-348 -628 0
-348 -663 0
-348 -698 0
-348 -733 0
-348 -768 0
-348 -803 0
-348 -838 0
-348 -873 0
-348 -908 0
-348 -943 0
-348 -978 0
-348 -1013 0
-348 -1048 0
-348 -1083 0
-348 -1118 0
-348 -1153 0
-348 -1188 0
-348 -1223 0
-348 -1258 0
-383 -418 0
-383 -453 0
-383 -488 0
-383 -523 0
-383 -558 0
-383 -593 0
-383 -628 0
-383 -663 0
-383 -698 0
-383 -733 0
-383 -768 0
-383 -803 0
-383 -838 0
-383 -873 0
-383 -908 0
-383 -943 0
-383 -978 0
-383 -1013 0
-383 -1048 0
-383 -1083 0
-383 -1118 0
-383 -1153 0
-383 -1188 0
-383 -1223 0
-383 -1258 0
-418 -453 0
-418 -488 0
-418 -523 0
-418 -558 0
-418 -593 0
-418 -628 0
-418 -663 0
-418 -698 0
-418 -733 0
-418 -768 0
-418 -803 0
-418 -838 0
-418 -873 0
-418 -908 0
-418 -943 0
-418 -978 0
-418 -1013 0
-418 -1048 0
-418 -1083 0
-418 -1118 0
-418 -1153 0
-418 -1188 0
-418 -1223 0
-418 -1258 0
-453 -488 0
-453 -523 0
-453 -558 0
-453 -593 0
-453 -628 0
-453 -663 0
-453 -698 0
-453 -733 0
-453 -768 0
-453 -803 0
-453 -838 0
-453 -873 0
-453 -908 0
-453 -943 0
-453 -978 0
-453 -1013 0
-453 -1048 0
-453 -1083 0
-453 -1118 0
-453 -1153 0
-453 -1188 0
-453 -1223 0
-453 -1258 0
-488 -523 0
-488 -558 0
-488 -593 0
-488 -628 0
-488 -663 0
-488 -698 0
-488 -733 0
-488 -768 0
-488 -803 0
-488 -838 0
-488 -873 0
-488 -908 0
-488 -943 0
-488 -978 0
-488 -1013 0
-488 -1048 0
-488 -1083 0
-488 -1118 0
-488 -1153 0
-488 -1188 0
-488 -1223 0
-488 -1258 0
-523 -558 0
-523 -593 0
-523 -628 0
-523 -663 0
-523 -698 0
-523 -733 0
-523 -768 0
-523 -803 0
-523 -838 0
-523 -873 0
-523 -908 0
-523 -943 0
-523 -978 0
-523 -1013 0
-523 -1048 0
-523 -1083 0
-523 -1118 0
-523 -1153 0
-523 -1188 0
-523 -1223 0
-523 -1258 0
-558 -593 0
-558 -628 0
-558 -663 0
-558 -698 0
-558 -733 0
-558 -768 0
-558 -803 0
-558 -838 0
-558 -873 0
-558 -908 0
-558 -943 0
-558 -978 0
-558 -1013 0
-558 -1048 0
-558 -1083 0
-558 -1118 0
-558 -1153 0
-558 -1188 0
-558 -1223 0
-558 -1258 0
-593 -628 0
-593 -663 0
-593 -698 0
-593 -733 0
-593 -768 0
-593 -803 0
-593 -838 0
-593 -873 0
-593 -908 0
-593 -943 0
-593 -978 0
-593 -1013 0
-593 -1048 0
-593 -1083 0
-593 -1118 0
-593 -1153 0
-593 -1188 0
-593 -1223 0
-593 -1258 0
-628 -663 0
-628 -698 0
-628 -733 0
-628 -768 0
-628 -803 0
-628 -838 0
-628 -873 0
-628 -908 0
-628 -943 0
-628 -978 0
-628 -1013 0
-628 -1048 0
-628 -1083 0
-628 -1118 0
-628 -1153 0
-628 -1188 0
-628 -1223 0
-628 -1258 0
-663 -698 0
-663 -733 0
-663 -768 0
-663 -803 0
-663 -838 0
-663 -873 0
-663 -908 0
-663 -943 0
-663 -978 0
-663 -1013 0
-663 -1048 0
-663 -1083 0
-663 -1118 0
-663 -1153 0
-663 -1188 0
-663 -1223 0
-663 -1258 0
-698 -733 0
-698 -768 0
-698 -803 0
-698 -838 0
-698 -873 0
-698 -908 0
-698 -943 0
-698 -978 0
-698 -1013 0
-698 -1048 0
-698 -1083 0
-698 -1118 0
-698 -1153 0
-698 -1188 0
-698 -1223 0
-698 -1258 0
-733 -768 0
-733 -803 0
-733 -838 0
-733 -873 0
-733 -908 0
-733 -943 0
-733 -978 0
-733 -1013 0
-733 -1048 0
-733 -1083 0
-733 -1118 0
-733 -1153 0
-733 -1188 0
-733 -1223 0
-733 -1258 0
-768 -803 0
-768 -838 0
-768 -873 0
-768 -908 0
-768 -943 0
-768 -978 0
-768 -1013 0
-768 -1048 0
-768 -1083 0
-768 -1118 0
-768 -1153 0
-768 -1188 0
-768 -1223 0
-768 -1258 0
-803 -838 0
-803 -873 0
-803 -908 0
-803 -943 0
-803 -978 0
-803 -1013 0
-803 -1048 0
-803 -1083 0
-803 -1118 0
-803 -1153 0
-803 -1188 0
-803 -1223 0
-803 -1258 0
-838 -873 0
-838 -908 0
-838 -943 0
-838 -978 0
-838 -1013 0
-838 -1048 0
-838 -1083 0
-838 -1118 0
-838 -1153 0
-838 -1188 0
-838 -1223 0
-838 -1258 0
-873 -908 0
-873 -943 0
-873 -978 0
-873 -1013 0
-873 -1048 0
-873 -1083 0
-873 -1118 0
-873 -1153 0
-873 -1188 0
-873 -1223 0
-873 -1258 0
-908 -943 0
-908 -978 0
-908 -1013 0
-908 -1048 0
-908 -1083 0
-908 -1118 0
-908 -1153 0
-908 -1188 0
-908 -1223 0
-908 -1258 0
-943 -978 0
-943 -1013 0
-943 -1048 0
-943 -1083 0
-943 -1118 0
-943 -1153 0
-943 -1188 0
-943 -1223 0
-943 -1258 0
-978 -1013 0
-978 -1048 0
-978 -1083 0
-978 -1118 0
-978 -1153 0
-978 -1188 0
-978 -1223 0
-978 -1258 0
-1013 -1048 0
-1013 -1083 0
-1013 -1118 0
-1013 -1153 0
-1013 -1188 0
-1013 -1223 0
-1013 -1258 0
-1048 -1083 0
-1048 -1118 0
-1048 -1153 0
-1048 -1188 0
-1048 -1223 0
-1048 -1258 0
-1083 -1118 0
-1083 -1153 0
-1083 -1188 0
-1083 -1223 0
-1083 -1258 0
-1118 -1153 0
-1118 -1188 0
-1118 -1223 0
-1118 -1258 0
-1153 -1188 0
-1153 -1223 0
-1153 -1258 0
-1188 -1223 0
-1188 -1258 0
-1223 -1258 0
-34 -69 0
-34 -104 0
-34 -139 0
-34 -174 0
-34 -209 0
-34 -244 0
-34 -279 0
-34 -314 0
-34 -349 0
-34 -384 0
-34 -419 0
-34 -454 0
-34 -489 0
-34 -524 0
-34 -559 0
-34 -594 0
-34 -629 0
-34 -664 0
-34 -699 0
-34 -734 0
-34 -769 0
-34 -804 0
-34 -839 0
-34 -874 0
-34 -909 0
-34 -944 0
-34 -979 0
-34 -1014 0
-34 -1049 0
-34 -1084 0
-34 -1119 0
-34 -1154 0
-34 -1189 0
-34 -1224 0
-34 -1259 0
-69 -104 0
-69 -139 0
-69 -174 0
-69 -209 0
-69 -244 0
-69 -279 0
-69 -314 0
-69 -349 0
-69 -384 0
-69 -419 0
-69 -454 0
-69 -489 0
-69 -524 0
-69 -559 0
-69 -594 0
-69 -629 0
-69 -664 0
-69 -699 0
-69 -734 0
-69 -769 0
-69 -804 0
-69 -839 0
-69 -874 0
-69 -909 0
-69 -944 0
-69 -979 0
-69 -1014 0
-69 -1049 0
-69 -1084 0
-69 -1119 0
-69 -1154 0
-69 -1189 0
-69 -1224 0
-69 -1259 0
-104 -139 0
-104 -174 0
-104 -209 0
-104 -244 0
-104 -279 0
-104 -314 0
-104 -349 0
-104 -384 0
-104 -419 0
-104 -454 0
-104 -489 0
-104 -524 0
-104 -559 0
-104 -594 0
-104 -629 0
-104 -664 0
-104 -699 0
-104 -734 0
-104 -769 0
-104 -804 0
-104 -839 0
-104 -874 0
-104 -909 0
-104 -944 0
-104 -979 0
-104 -1014 0
-104 -1049 0
-104 -1084 0
-104 -1119 0
-104 -1154 0
-104 -1189 0
-104 -1224 0
-104 -1259 0
-139 -174 0
-139 -209 0
-139 -244 0
-139 -279 0
-139 -314 0
-139 -349 0
-139 -384 0
-139 -419 0
-139 -454 0
-139 -489 0
-139 -524 0
-139 -559 0
-139 -594 0
-139 -629 0
-139 -664 0
-139 -699 0
-139 -734 0
-139 -769 0
-139 -804 0
-139 -839 0
-139 -874 0
-139 -909 0
-139 -944 0
-139 -979 0
-139 -1014 0
-139 -1049 0
-139 -1084 0
-139 -1119 0
-139 -1154 0
-139 -1189 0
-139 -1224 0
-139 -1259 0
-174 -209 0
-174 -244 0
-174 -279 0
-174 -314 0
-174 -349 0
-174 -384 0
-174 -419 0
-174 -454 0
-174 -489 0
-174 -524 0
-174 -559 0
-174 -594 0
-174 -629 0
-174 -664 0
-174 -699 0
-174 -734 0
-174 -769 0
-174 -804 0
-174 -839 0
-174 -874 0
-174 -909 0
-174 -944 0
-174 -979 0
-174 -1014 0
-174 -1049 0
-174 -1084 0
-174 -1119 0
-174 -1154 0
-174 -1189 0
-174 -1224 0
-174 -1259 0
-209 -244 0
-209 -279 0
-209 -314 0
-209 -349 0
-209 -384 0
-209 -419 0
-209 -454 0
-209 -489 0
-209 -524 0
-209 -559 0
-209 -594 0
-209 -629 0
-209 -664 0
-209 -699 0
-209 -734 0
-209 -769 0
-209 -804 0
-209 -839 0
-209 -874 0
-209 -909 0
-209 -944 0
-209 -979 0
-209 -1014 0
-209 -1049 0
-209 -1084 0
-209 -1119 0
-209 -1154 0
-209 -1189 0
-209 -1224 0
-209 -1259 0
-244 -279 0
-244 -314 0
-244 -349 0
-244 -384 0
-244 -419 0
-244 -454 0
-244 -489 0
-244 -524 0
-244 -559 0
-244 -594 0
-244 -629 0
-244 -664 0
-244 -699 0
-244 -734 0
-244 -769 0
-244 -804 0
-244 -839 0
-244 -874 0
-244 -909 0
-244 -944 0
-244 -979 0
-244 -1014 0
-244 -1049 0
-244 -1084 0
-244 -1119 0
-244 -1154 0
-244 -1189 0
-244 -1224 0
-244 -1259 0
-279 -314 0
-279 -349 0
-279 -384 0
-279 -419 0
-279 -454 0
-279 -489 0
-279 -524 0
-279 -559 0
-279 -594 0
-279 -629 0
-279 -664 0
-279 -699 0
-279 -734 0
-279 -769 0
-279 -804 0
-279 -839 0
-279 -874 0
-279 -909 0
-279 -944 0
-279 -979 0
-279 -1014 0
-279 -1049 0
-279 -1084 0
-279 -1119 0
-279 -1154 0
-279 -1189 0
-279 -1224 0
-279 -1259 0
-314 -349 0
-314 -384 0
-314 -419 0
-314 -454 0
-314 -489 0
-314 -524 0
-314 -559 0
-314 -594 0
-314 -629 0
-314 -664 0
-314 -699 0
-314 -734 0
-314 -769 0
-314 -804 0
-314 -839 0
-314 -874 0
-314 -909 0
-314 -944 0
-314 -979 0
-314 -1014 0
-314 -1049 0
-314 -1084 0
-314 -1119 0
-314 -1154 0
-314 -1189 0
-314 -1224 0
-314 -1259 0
-349 -384 0
-349 -419 0
-349 -454 0
-349 -489 0
-349 -524 0
-349 -559 0
-349 -594 0
-349 -629 0
-349 -664 0
-349 -699 0
-349 -734 0
-349 -769 0
-349 -804 0
-349 -839 0
-349 -874 0
-349 -909 0
-349 -944 0
-349 -979 0
-349 -1014 0
-349 -1049 0
-349 -1084 0
-349 -1119 0
-349 -1154 0
-349 -1189 0
-349 -1224 0
-349 -1259 0
-384 -419 0
-384 -454 0
-384 -489 0
-384 -524 0
-384 -559 0
-384 -594 0
-384 -629 0
-384 -664 0
-384 -699 0
-384 -734 0
-384 -769 0
-384 -804 0
-384 -839 0
-384 -874 0
-384 -909 0
-384 -944 0
-384 -979 0
-384 -1014 0
-384 -1049 0
-384 -1084 0
-384 -1119 0
-384 -1154 0
-384 -1189 0
-384 -1224 0
-384 -1259 0
-419 -454 0
-419 -489 0
-419 -524 0
-419 -559 0
-419 -594 0
-419 -629 0
-419 -664 0
-419 -699 0
-419 -734 0
-419 -769 0
-419 -804 0
-419 -839 0
-419 -874 0
-419 -909 0
-419 -944 0
-419 -979 0
-419 -1014 0
-419 -1049 0
-419 -1084 0
-419 -1119 0
-419 -1154 0
-419 -1189 0
-419 -1224 0
-419 -1259 0
-454 -489 0
-454 -524 0
-454 -559 0
-454 -594 0
-454 -629 0
-454 -664 0
-454 -699 0
-454 -734 0
-454 -769 0
-454 -804 0
-454 -839 0
-454 -874 0
-454 -909 0
-454 -944 0
-454 -979 0
-454 -1014 0
-454 -1049 0
-454 -1084 0
-454 -1119 0
-454 -1154 0
-454 -1189 0
-454 -1224 0
-454 -1259 0
-489 -524 0
-489 -559 0
-489 -594 0
-489 -629 0
-489 -664 0
-489 -699 0
-489 -734 0
-489 -769 0
-489 -804 0
-489 -839 0
-489 -874 0
-489 -909 0
-489 -944 0
-489 -979 0
-489 -1014 0
-489 -1049 0
-489 -1084 0
-489 -1119 0
-489 -1154 0
-489 -1189 0
-489 -1224 0
-489 -1259 0
-524 -559 0
-524 -594 0
-524 -629 0
-524 -664 0
-524 -699 0
-524 -734 0
-524 -769 0
-524 -804 0
-524 -839 0
-524 -874 0
-524 -909 0
-524 -944 0
-524 -979 0
-524 -1014 0
-524 -1049 0
-524 -1084 0
-524 -1119 0
-524 -1154 0
-524 -1189 0
-524 -1224 0
-524 -1259 0
-559 -594 0
-559 -629 0
-559 -664 0
-559 -699 0
-559 -734 0
-559 -769 0
-559 -804 0
-559 -839 0
-559 -874 0
-559 -909 0
-559 -944 0
-559 -979 0
-559 -1014 0
-559 -1049 0
-559 -1084 0
-559 -1119 0
-559 -1154 0
-559 -1189 0
-559 -1224 0
-559 -1259 0
-594 -629 0
-594 -664 0
-594 -699 0
-594 -734 0
-594 -769 0
-594 -804 0
-594 -839 0
-594 -874 0
-594 -909 0
-594 -944 0
-594 -979 0
-594 -1014 0
-594 -1049 0
-594 -1084 0
-594 -1119 0
-594 -1154 0
-594 -1189 0
-594 -1224 0
-594 -1259 0
-629 -664 0
-629 -699 0
-629 -734 0
-629 -769 0
-629 -804 0
-629 -839 0
-629 -874 0
-629 -909 0
-629 -944 0
-629 -979 0
-629 -1014 0
-629 -1049 0
-629 -1084 0
-629 -1119 0
-629 -1154 0
-629 -1189 0
-629 -1224 0
-629 -1259 0
-664 -699 0
-664 -734 0
-664 -769 0
-664 -804 0
-664 -839 0
-664 -874 0
-664 -909 0
-664 -944 0
-664 -979 0
-664 -1014 0
-664 -1049 0
-664 -1084 0
-664 -1119 0
-664 -1154 0
-664 -1189 0
-664 -1224 0
-664 -1259 0
-699 -734 0
-699 -769 0
-699 -804 0
-699 -839 0
-699 -874 0
-699 -909 0
-699 -944 0
-699 -979 0
-699 -1014 0
-699 -1049 0
-699 -1084 0
-699 -1119 0
-699 -1154 0
-699 -1189 0
-699 -1224 0
-699 -1259 0
-734 -769 0
-734 -804 0
-734 -839 0
-734 -874 0
-734 -909 0
-734 -944 0
-734 -979 0
-734 -1014 0
-734 -1049 0
-734 -1084 0
-734 -1119 0
-734 -1154 0
-734 -1189 0
-734 -1224 0
-734 -1259 0
-769 -804 0
-769 -839 0
-769 -874 0
-769 -909 0
-769 -944 0
-769 -979 0
-769 -1014 0
-769 -1049 0
-769 -1084 0
-769 -1119 0
-769 -1154 0
-769 -1189 0
-769 -1224 0
-769 -1259 0
-804 -839 0
-804 -874 0
-804 -909 0
-804 -944 0
-804 -979 0
-804 -1014 0
-804 -1049 0
-804 -1084 0
-804 -1119 0
-804 -1154 0
-804 -1189 0
-804 -1224 0
-804 -1259 0
-839 -874 0
-839 -909 0
-839 -944 0
-839 -979 0
-839 -1014 0
-839 -1049 0
-839 -1084 0
-839 -1119 0
-839 -1154 0
-839 -1189 0
-839 -1224 0
-839 -1259 0
-874 -909 0
-874 -944 0
-874 -979 0
-874 -1014 0
-874 -1049 0
-874 -1084 0
-874 -1119 0
-874 -1154 0
-874 -1189 0
-874 -1224 0
-874 -1259 0
-909 -944 0
-909 -979 0
-909 -1014 0
-909 -1049 0
-909 -1084 0
-909 -1119 0
-909 -1154 0
-909 -1189 0
-909 -1224 0
-909 -1259 0
-944 -979 0
-944 -1014 0
-944 -1049 0
-944 -1084 0
-944 -1119 0
-944 -1154 0
-944 -1189 0
-944 -1224 0
-944 -1259 0
-979 -1014 0
-979 -1049 0
-979 -1084 0
-979 -1119 0
-979 -1154 0
-979 -1189 0
-979 -1224 0
-979 -1259 0
-1014 -1049 0
-1014 -1084 0
-1014 -1119 0
-1014 -1154 0
-1014 -1189 0
-1014 -1224 0
-1014 -1259 0
-1049 -1084 0
-1049 -1119 0
-1049 -1154 0
-1049 -1189 0
-1049 -1224 0
-1049 -1259 0
-1084 -1119 0
-1084 -1154 0
-1084 -1189 0
-1084 -1224 0
-1084 -1259 0
-1119 -1154 0
-1119 -1189 0
-1119 -1224 0
-1119 -1259 0
-1154 -1189 0
-1154 -1224 0
-1154 -1259 0
-1189 -1224 0
-1189 -1259 0
-1224 -1259 0
-35 -70 0
-35 -105 0
-35 -140 0
-35 -175 0
-35 -210 0
-35 -245 0
-35 -280 0
-35 -315 0
-35 -350 0
-35 -385 0
-35 -420 0
-35 -455 0
-35 -490 0
-35 -525 0
-35 -560 0
-35 -595 0
-35 -630 0
-35 -665 0
-35 -700 0
-35 -735 0
-35 -770 0
-35 -805 0
-35 -840 0
-35 -875 0
-35 -910 0
-35 -945 0
-35 -980 0
-35 -1015 0
-35 -1050 0
-35 -1085 0
-35 -1120 0
-35 -1155 0
-35 -1190 0
-35 -1225 0
-35 -1260 0
-70 -105 0
-70 -140 0
-70 -175 0
-70 -210 0
-70 -245 0
-70 -280 0
-70 -315 0
-70 -350 0
-70 -385 0
-70 -420 0
-70 -455 0
-70 -490 0
-70 -525 0
-70 -560 0
-70 -595 0
-70 -630 0
-70 -665 0
-70 -700 0
-70 -735 0
-70 -770 0
-70 -805 0
-70 -840 0
-70 -875 0
-70 -910 0
-70 -945 0
-70 -980 0
-70 -1015 0
-70 -1050 0
-70 -1085 0
-70 -1120 0
-70 -1155 0
-70 -1190 0
-70 -1225 0
-70 -1260 0
-105 -140 0
-105 -175 0
-105 -210 0
-105 -245 0
-105 -280 0
-105 -315 0
-105 -350 0
-105 -385 0
-105 -420 0
-105 -455 0
-105 -490 0
-105 -525 0
-105 -560 0
-105 -595 0
-105 -630 0
-105 -665 0
-105 -700 0
-105 -735 0
-105 -770 0
-105 -805 0
-105 -840 0
-105 -875 0
-105 -910 0
-105 -945 0
-105 -980 0
-105 -1015 0
-105 -1050 0
-105 -1085 0
-105 -1120 0
-105 -1155 0
-105 -1190 0
-105 -1225 0
-105 -1260 0
-140 -175 0
-140 -210 0
-140 -245 0
-140 -280 0
-140 -315 0
-140 -350 0
-140 -385 0
-140 -420 0
-140 -455 0
-140 -490 0
-140 -525 0
-140 -560 0
-140 -595 0
-140 -630 0
-140 -665 0
-140 -700 0
-140 -735 0
-140 -770 0
-140 -805 0
-140 -840 0
-140 -875 0
-140 -910 0
-140 -945 0
-140 -980 0
-140 -1015 0
-140 -1050 0
-140 -1085 0
-140 -1120 0
-140 -1155 0
-140 -1190 0
-140 -1225 0
-140 -1260 0
-175 -210 0
-175 -245 0
-175 -280 0
-175 -315 0
-175 -350 0
-175 -385 0
-175 -420 0
-175 -455 0
-175 -490 0
-175 -525 0
-175 -560 0
-175 -595 0
-175 -630 0
-175 -665 0
-175 -700 0
-175 -735 0
-175 -770 0
-175 -805 0
-175 -840 0
-175 -875 0
-175 -910 0
-175 -945 0
-175 -980 0
-175 -1015 0
-175 -1050 0
-175 -1085 0
-175 -1120 0
-175 -1155 0
-175 -1190 0
-175 -1225 0
-175 -1260 0
-210 -245 0
-210 -280 0
-210 -315 0
-210 -350 0
-210 -385 0
-210 -420 0
-210 -455 0
-210 -490 0
-210 -525 0
-210 -560 0
-210 -595 0
-210 -630 0
-210 -665 0
-210 -700 0
-210 -735 0
-210 -770 0
-210 -805 0
-210 -840 0
-210 -875 0
-210 -910 0
-210 -945 0
-210 -980 0
-210 -1015 0
-210 -1050 0
-210 -1085 0
-210 -1120 0
-210 -1155 0
-210 -1190 0
-210 -1225 0
-210 -1260 0
-245 -280 0
-245 -315 0
-245 -350 0
-245 -385 0
-245 -420 0
-245 -455 0
-245 -490 0
-245 -525 0
-245 -560 0
-245 -595 0
-245 -630 0
-245 -665 0
-245 -700 0
-245 -735 0
-245 -770 0
-245 -805 0
-245 -840 0
-245 -875 0
-245 -910 0
-245 -945 0
-245 -980 0
-245 -1015 0
-245 -1050 0
-245 -1085 0
-245 -1120 0
-245 -1155 0
-245 -1190 0
-245 -1225 0
-245 -1260 0
-280 -315 0
-280 -350 0
-280 -385 0
-280 -420 0
-280 -455 0
-280 -490 0
-280 -525 0
-280 -560 0
-280 -595 0
-280 -630 0
-280 -665 0
-280 -700 0
-280 -735 0
-280 -770 0
-280 -805 0
-280 -840 0
-280 -875 0
-280 -910 0
-280 -945 0
-280 -980 0
-280 -1015 0
-280 -1050 0
-280 -1085 0
-280 -1120 0
-280 -1155 0
-280 -1190 0
-280 -1225 0
-280 -1260 0
-315 -350 0
-315 -385 0
-315 -420 0
-315 -455 0
-315 -490 0
-315 -525 0
-315 -560 0
-315 -595 0
-315 -630 0
-315 -665 0
-315 -700 0
-315 -735 0
-315 -770 0
-315 -805 0
-315 -840 0
-315 -875 0
-315 -910 0
-315 -945 0
-315 -980 0
-315 -1015 0
-315 -1050 0
-315 -1085 0
-315 -1120 0
-315 -1155 0
-315 -1190 0
-315 -1225 0
-315 -1260 0
-350 -385 0
-350 -420 0
-350 -455 0
-350 -490 0
-350 -525 0
-350 -560 0
-350 -595 0
-350 -630 0
-350 -665 0
-350 -700 0
-350 -735 0
-350 -770 0
-350 -805 0
-350 -840 0
-350 -875 0
-350 -910 0
-350 -945 0
-350 -980 0
-350 -1015 0
-350 -1050 0
-350 -1085 0
-350 -1120 0
-350 -1155 0
-350 -1190 0
-350 -1225 0
-350 -1260 0
-385 -420 0
-385 -455 0
-385 -490 0
-385 -525 0
-385 -560 0
-385 -595 0
-385 -630 0
-385 -665 0
-385 -700 0
-385 -735 0
-385 -770 0
-385 -805 0
-385 -840 0
-385 -875 0
-385 -910 0
-385 -945 0
-385 -980 0
-385 -1015 0
-385 -1050 0
-385 -1085 0
-385 -1120 0
-385 -1155 0
-385 -1190 0
-385 -1225 0
-385 -1260 0
-420 -455 0
-420 -490 0
-420 -525 0
-420 -560 0
-420 -595 0
-420 -630 0
-420 -665 0
-420 -700 0
-420 -735 0
-420 -770 0
-420 -805 0
-420 -840 0
-420 -875 0
-420 -910 0
-420 -945 0
-420 -980 0
-420 -1015 0
-420 -1050 0
-420 -1085 0
-420 -1120 0
-420 -1155 0
-420 -1190 0
-420 -1225 0
-420 -1260 0
-455 -490 0
-455 -525 0
-455 -560 0
-455 -595 0
-455 -630 0
-455 -665 0
-455 -700 0
-455 -735 0
-455 -770 0
-455 -805 0
-455 -840 0
-455 -875 0
-455 -910 0
-455 -945 0
-455 -980 0
-455 -1015 0
-455 -1050 0
-455 -1085 0
-455 -1120 0
-455 -1155 0
-455 -1190 0
-455 -1225 0
-455 -1260 0
-490 -525 0
-490 -560 0
-490 -595 0
-490 -630 0
-490 -665 0
-490 -700 0
-490 -735 0
-490 -770 0
-490 -805 0
-490 -840 0
-490 -875 0
-490 -910 0
-490 -945 0
-490 -980 0
-490 -1015 0
-490 -1050 0
-490 -1085 0
-490 -1120 0
-490 -1155 0
-490 -1190 0
-490 -1225 0
-490 -1260 0
-525 -560 0
-525 -595 0
-525 -630 0
-525 -665 0
-525 -700 0
-525 -735 0
-525 -770 0
-525 -805 0
-525 -840 0
-525 -875 0
-525 -910 0
-525 -945 0
-525 -980 0
-525 -1015 0
-525 -1050 0
-525 -1085 0
-525 -1120 0
-525 -1155 0
-525 -1190 0
-525 -1225 0
-525 -1260 0
-560 -595 0
-560 -630 0
-560 -665 0
-560 -700 0
-560 -735 0
-560 -770 0
-560 -805 0
-560 -840 0
-560 -875 0
-560 -910 0
-560 -945 0
-560 -980 0
-560 -1015 0
-560 -1050 0
-560 -1085 0
-560 -1120 0
-560 -1155 0
-560 -1190 0
-560 -1225 0
-560 -1260 0
-595 -630 0
-595 -665 0
-595 -700 0
-595 -735 0
-595 -770 0
-595 -805 0
-595 -840 0
-595 -875 0
-595 -910 0
-595 -945 0
-595 -980 0
-595 -1015 0
-595 -1050 0
-595 -1085 0
-595 -1120 0
-595 -1155 0
-595 -1190 0
-595 -1225 0
-595 -1260 0
-630 -665 0
-630 -700 0
-630 -735 0
-630 -770 0
-630 -805 0
-630 -840 0
-630 -875 0
-630 -910 0
-630 -945 0
-630 -980 0
-630 -1015 0
-630 -1050 0
-630 -1085 0
-630 -1120 0
-630 -1155 0
-630 -1190 0
-630 -1225 0
-630 -1260 0
-665 -700 0
-665 -735 0
-665 -770 0
-665 -805 0
-665 -840 0
-665 -875 0
-665 -910 0
-665 -945 0
-665 -980 0
-665 -1015 0
-665 -1050 0
-665 -1085 0
-665 -1120 0
-665 -1155 0
-665 -1190 0
-665 -1225 0
-665 -1260 0
-700 -735 0
-700 -770 0
-700 -805 0
-700 -840 0
-700 -875 0
-700 -910 0
-700 -945 0
-700 -980 0
-700 -1015 0
-700 -1050 0
-700 -1085 0
-700 -1120 0
-700 -1155 0
-700 -1190 0
-700 -1225 0
-700 -1260 0
-735 -770 0
-735 -805 0
-735 -840 0
-735 -875 0
-735 -910 0
-735 -945 0
-735 -980 0
-735 -1015 0
-735 -1050 0
-735 -1085 0
-735 -1120 0
-735 -1155 0
-735 -1190 0
-735 -1225 0
-735 -1260 0
-770 -805 0
-770 -840 0
-770 -875 0
-770 -910 0
-770 -945 0
-770 -980 0
-770 -1015 0
-770 -1050 0
-770 -1085 0
-770 -1120 0
-770 -1155 0
-770 -1190 0
-770 -1225 0
-770 -1260 0
-805 -840 0
-805 -875 0
-805 -910 0
-805 -945 0
-805 -980 0
-805 -1015 0
-805 -1050 0
-805 -1085 0
-805 -1120 0
-805 -1155 0
-805 -1190 0
-805 -1225 0
-805 -1260 0
-840 -875 0
-840 -910 0
-840 -945 0
-840 -980 0
-840 -1015 0
-840 -1050 0
-840 -1085 0
-840 -1120 0
-840 -1155 0
-840 -1190 0
-840 -1225 0
-840 -1260 0
-875 -910 0
-875 -945 0
-875 -980 0
-875 -1015 0
-875 -1050 0
-875 -1085 0
-875 -1120 0
-875 -1155 0
-875 -1190 0
-875 -1225 0
-875 -1260 0
-910 -945 0
-910 -980 0
-910 -1015 0
-910 -1050 0
-910 -1085 0
-910 -1120 0
-910 -1155 0
-910 -1190 0
-910 -1225 0
-910 -1260 0
-945 -980 0
-945 -1015 0
-945 -1050 0
-945 -1085 0
-945 -1120 0
-945 -1155 0
-945 -1190 0
-945 -1225 0
-945 -1260 0
-980 -1015 0
-980 -1050 0
-980 -1085 0
-980 -1120 0
-980 -1155 0
-980 -1190 0
-980 -1225 0
-980 -1260 0
-1015 -1050 0
-1015 -1085 0
-1015 -1120 0
-1015 -1155 0
-1015 -1190 0
-1015 -1225 0
-1015 -1260 0
-1050 -1085 0
-1050 -1120 0
-1050 -1155 0
-1050 -1190 0
-1050 -1225 0
-1050 -1260 0
-1085 -1120 0
-1085 -1155 0
-1085 -1190 0
-1085 -1225 0
-1085 -1260 0
-1120 -1155 0
-1120 -1190 0
-1120 -1225 0
-1120 -1260 0
-1155 -1190 0
-1155 -1225 0
-1155 -1260 0
-1190 -1225 0
-1190 -1260 0
-1225 -1260 0
