c Pigeonhole formula PHP_30
c 31 pigeons, 30 holes
c Unsatisfiable: YES (pigeonhole principle)
c Variables: 930
c Clauses: 29340
p cnf 930 29340
1 2 3 4 5 6 7 8 9 10 11 12 13 14 15 16 17 18 19 20 21 22 23 24 25 26 27 28 29 30 0
31 32 33 34 35 36 37 38 39 40 41 42 43 44 45 46 47 48 49 50 51 52 53 54 55 56 57 58 59 60 0
61 62 63 64 65 66 67 68 69 70 71 72 73 74 75 76 77 78 79 80 81 82 83 84 85 86 87 88 89 90 0
91 92 93 94 95 96 97 98 99 100 101 102 103 104 105 106 107 108 109 110 111 112 113 114 115 116 117 118 119 120 0
121 122 123 124 125 126 127 128 129 130 131 132 133 134 135 136 137 138 139 140 141 142 143 144 145 146 147 148 149 150 0
151 152 153 154 155 156 157 158 159 160 161 162 163 164 165 166 167 168 169 170 171 172 173 174 175 176 177 178 179 180 0
181 182 183 184 185 186 187 188 189 190 191 192 193 194 195 196 197 198 199 200 201 202 203 204 205 206 207 208 209 210 0
211 212 213 214 215 216 217 218 219 220 221 222 223 224 225 226 227 228 229 230 231 232 233 234 235 236 237 238 239 240 0
241 242 243 244 245 246 247 248 249 250 251 252 253 254 255 256 257 258 259 260 261 262 263 264 265 266 267 268 269 270 0
271 272 273 274 275 276 277 278 279 280 281 282 283 284 285 286 287 288 289 290 291 292 293 294 295 296 297 298 299 300 0
301 302 303 304 305 306 307 308 309 310 311 312 313 314 315 316 317 318 319 320 321 322 323 324 325 326 327 328 329 330 0
331 332 333 334 335 336 337 338 339 340 341 342 343 344 345 346 347 348 349 350 351 352 353 354 355 356 357 358 359 360 0
361 362 363 364 365 366 367 368 369 370 371 372 373 374 375 376 377 378 379 380 381 382 383 384 385 386 387 388 389 390 0
391 392 393 394 395 396 397 398 399 400 401 402 403 404 405 406 407 408 409 410 411 412 413 414 415 416 417 418 419 420 0
421 422 423 424 425 426 427 428 429 430 431 432 433 434 435 436 437 438 439 440 441 442 443 444 445 446 447 448 449 450 0
451 452 453 454 455 456 457 458 459 460 461 462 463 464 465 466 467 468 469 470 471 472 473 474 475 476 477 478 479 480 0
481 482 483 484 485 486 487 488 489 490 491 492 493 494 495 496 497 498 499 500 501 502 503 504 505 506 507 508 509 510 0
511 512 513 514 515 516 517 518 519 520 521 522 523 524 525 526 527 528 529 530 531 532 533 534 535 536 537 538 539 540 0
541 542 543 544 545 546 547 548 549 550 551 552 553 554 555 556 557 558 559 560 561 562 563 564 565 566 567 568 569 570 0
571 572 573 574 575 576 577 578 579 580 581 582 583 584 585 586 587 588 589 590 591 592 593 594 595 596 597 598 599 600 0
601 602 603 604 605 606 607 608 609 610 611 612 613 614 615 616 617 618 619 620 621 622 623 624 625 626 627 628 629 630 0
631 632 633 634 635 636 637 638 639 640 641 642 643 644 645 646 647 648 649 650 651 652 653 654 655 656 657 658 659 660 0
661 662 663 664 665 666 667 668 669 670 671 672 673 674 675 676 677 678 679 680 681 682 683 684 685 686 687 688 689 690 0
691 692 693 694 695 696 697 698 699 700 701 702 703 704 705 706 707 708 709 710 711 712 713 714 715 716 717 718 719 720 0
721 722 723 724 725 726 727 728 729 730 731 732 733 734 735 736 737 738 739 740 741 742 743 744 745 746 747 748 749 750 0
751 752 753 754 755 756 757 758 759 760 761 762 763 764 765 766 767 768 769 770 771 772 773 774 775 776 777 778 779 780 0
781 782 783 784 785 786 787 788 789 790 791 792 793 794 795 796 797 798 799 800 801 802 803 804 805 806 807 808 809 810 0
811 812 813 814 815 816 817 818 819 820 821 822 823 824 825 826 827 828 829 830 831 832 833 834 835 836 837 838 839 840 0
841 842 843 844 845 846 847 848 849 850 851 852 853 854 855 856 857 858 859 860 861 862 863 864 865 866 867 868 869 870 0
871 872 873 874 875 876 877 878 879 880 881 882 883 884 885 886 887 888 889 890 891 892 893 894 895 896 897 898 899 900 0
901 902 903 904 905 906 907 908 909 910 911 912 913 914 915 916 917 918 919 920 921 922 923 924 925 926 927 928 929 930 0
-1 -31 0
-2 -32 0
-3 -33 0
-4 -34 0
-5 -35 0
-6 -36 0
-7 -37 0
-8 -38 0
-9 -39 0
-10 -40 0
-11 -41 0
-12 -42 0
-13 -43 0
-14 -44 0
-15 -45 0
-16 -46 0
-17 -47 0
-18 -48 0
-19 -49 0
-20 -50 0
-21 -51 0
-22 -52 0
-23 -53 0
-24 -54 0
-25 -55 0
-26 -56 0
-27 -57 0
-28 -58 0
-29 -59 0
-30 -60 0
-1 -61 0
-2 -62 0
-3 -63 0
-4 -64 0
-5 -65 0
-6 -66 0
-7 -67 0
-8 -68 0
-9 -69 0
-10 -70 0
-11 -71 0
-12 -72 0
-13 -73 0
-14 -74 0
-15 -75 0
-16 -76 0
-17 -77 0
-18 -78 0
-19 -79 0
-20 -80 0
-21 -81 0
-22 -82 0
-23 -83 0
-24 -84 0
-25 -85 0
-26 -86 0
-27 -87 0
-28 -88 0
-29 -89 0
-30 -90 0
-1 -91 0
-2 -92 0
-3 -93 0
-4 -94 0
-5 -95 0
-6 -96 0
-7 -97 0
-8 -98 0
-9 -99 0
-10 -100 0
-11 -101 0
-12 -102 0
-13 -103 0
-14 -104 0
-15 -105 0
-16 -106 0
-17 -107 0
-18 -108 0
-19 -109 0
-20 -110 0
-21 -111 0
-22 -112 0
-23 -113 0
-24 -114 0
-25 -115 0
-26 -116 0
-27 -117 0
-28 -118 0
-29 -119 0
-30 -120 0
-1 -121 0
-2 -122 0
-3 -123 0
-4 -124 0
-5 -125 0
-6 -126 0
-7 -127 0
-8 -128 0
-9 -129 0
-10 -130 0
-11 -131 0
-12 -132 0
-13 -133 0
-14 -134 0
-15 -135 0
-16 -136 0
-17 -137 0
-18 -138 0
-19 -139 0
-20 -140 0
-21 -141 0
-22 -142 0
-23 -143 0
-24 -144 0
-25 -145 0
-26 -146 0
-27 -147 0
-28 -148 0
-29 -149 0
-30 -150 0
-1 -151 0
-2 -152 0
-3 -153 0
-4 -154 0
-5 -155 0
-6 -156 0
-7 -157 0
-8 -158 0
-9 -159 0
-10 -160 0
-11 -161 0
-12 -162 0
-13 -163 0
-14 -164 0
-15 -165 0
-16 -166 0
-17 -167 0
-18 -168 0
-19 -169 0
-20 -170 0
-21 -171 0
-22 -172 0
-23 -173 0
-24 -174 0
-25 -175 0
-26 -176 0
-27 -177 0
-28 -178 0
-29 -179 0
-30 -180 0
-1 -181 0
-2 -182 0
-3 -183 0
-4 -184 0
-5 -185 0
-6 -186 0
-7 -187 0
-8 -188 0
-9 -189 0
-10 -190 0
-11 -191 0
-12 -192 0
-13 -193 0
-14 -194 0
-15 -195 0
-16 -196 0
-17 -197 0
-18 -198 0
-19 -199 0
-20 -200 0
-21 -201 0
-22 -202 0
-23 -203 0
-24 -204 0
-25 -205 0
-26 -206 0
-27 -207 0
-28 -208 0
-29 -209 0
-30 -210 0
-1 -211 0
-2 -212 0
-3 -213 0
-4 -214 0
-5 -215 0
-6 -216 0
-7 -217 0
-8 -218 0
-9 -219 0
-10 -220 0
-11 -221 0
-12 -222 0
-13 -223 0
-14 -224 0
-15 -225 0
-16 -226 0
-17 -227 0
-18 -228 0
-19 -229 0
-20 -230 0
-21 -231 0
-22 -232 0
-23 -233 0
-24 -234 0
-25 -235 0
-26 -236 0
-27 -237 0
-28 -238 0
-29 -239 0
-30 -240 0
-1 -241 0
-2 -242 0
-3 -243 0
-4 -244 0
-5 -245 0
-6 -246 0
-7 -247 0
-8 -248 0
-9 -249 0
-10 -250 0
-11 -251 0
-12 -252 0
-13 -253 0
-14 -254 0
-15 -255 0
-16 -256 0
-17 -257 0
-18 -258 0
-19 -259 0
-20 -260 0
-21 -261 0
-22 -262 0
-23 -263 0
-24 -264 0
-25 -265 0
-26 -266 0
-27 -267 0
-28 -268 0
-29 -269 0
-30 -270 0
-1 -271 0
-2 -272 0
-3 -273 0
-4 -274 0
-5 -275 0
-6 -276 0
-7 -277 0
-8 -278 0
-9 -279 0
-10 -280 0
-11 -281 0
-12 -282 0
-13 -283 0
-14 -284 0
-15 -285 0
-16 -286 0
-17 -287 0
-18 -288 0
-19 -289 0
-20 -290 0
-21 -291 0
-22 -292 0
-23 -293 0
-24 -294 0
-25 -295 0
-26 -296 0
-27 -297 0
-28 -298 0
-29 -299 0
-30 -300 0
-1 -301 0
-2 -302 0
-3 -303 0
-4 -304 0
-5 -305 0
-6 -306 0
-7 -307 0
-8 -308 0
-9 -309 0
-10 -310 0
-11 -311 0
-12 -312 0
-13 -313 0
-14 -314 0
-15 -315 0
-16 -316 0
-17 -317 0
-18 -318 0
-19 -319 0
-20 -320 0
-21 -321 0
-22 -322 0
-23 -323 0
-24 -324 0
-25 -325 0
-26 -326 0
-27 -327 0
-28 -328 0
-29 -329 0
-30 -330 0
-1 -331 0
-2 -332 0
-3 -333 0
-4 -334 0
-5 -335 0
-6 -336 0
-7 -337 0
-8 -338 0
-9 -339 0
-10 -340 0
-11 -341 0
-12 -342 0
-13 -343 0
-14 -344 0
-15 -345 0
-16 -346 0
-17 -347 0
-18 -348 0
-19 -349 0
-20 -350 0
-21 -351 0
-22 -352 0
-23 -353 0
-24 -354 0
-25 -355 0
-26 -356 0
-27 -357 0
-28 -358 0
-29 -359 0
-30 -360 0
-1 -361 0
-2 -362 0
-3 -363 0
-4 -364 0
-5 -365 0
-6 -366 0
-7 -367 0
-8 -368 0
-9 -369 0
-10 -370 0
-11 -371 0
-12 -372 0
-13 -373 0
-14 -374 0
-15 -375 0
-16 -376 0
-17 -377 0
-18 -378 0
-19 -379 0
-20 -380 0
-21 -381 0
-22 -382 0
-23 -383 0
-24 -384 0
-25 -385 0
-26 -386 0
-27 -387 0
-28 -388 0
-29 -389 0
-30 -390 0
-1 -391 0
-2 -392 0
-3 -393 0
-4 -394 0
-5 -395 0
-6 -396 0
-7 -397 0
-8 -398 0
-9 -399 0
-10 -400 0
-11 -401 0
-12 -402 0
-13 -403 0
-14 -404 0
-15 -405 0
-16 -406 0
-17 -407 0
-18 -408 0
-19 -409 0
-20 -410 0
-21 -411 0
-22 -412 0
-23 -413 0
-24 -414 0
-25 -415 0
-26 -416 0
-27 -417 0
-28 -418 0
-29 -419 0
-30 -420 0
-1 -421 0
-2 -422 0
-3 -423 0
-4 -424 0
-5 -425 0
-6 -426 0
-7 -427 0
-8 -428 0
-9 -429 0
-10 -430 0
-11 -431 0
-12 -432 0
-13 -433 0
-14 -434 0
-15 -435 0
-16 -436 0
-17 -437 0
-18 -438 0
-19 -439 0
-20 -440 0
-21 -441 0
-22 -442 0
-23 -443 0
-24 -444 0
-25 -445 0
-26 -446 0
-27 -447 0
-28 -448 0
-29 -449 0
-30 -450 0
-1 -451 0
-2 -452 0
-3 -453 0
-4 -454 0
-5 -455 0
-6 -456 0
-7 -457 0
-8 -458 0
-9 -459 0
-10 -460 0
-11 -461 0
-12 -462 0
-13 -463 0
-14 -464 0
-15 -465 0
-16 -466 0
-17 -467 0
-18 -468 0
-19 -469 0
-20 -470 0
-21 -471 0
-22 -472 0
-23 -473 0
-24 -474 0
-25 -475 0
-26 -476 0
-27 -477 0
-28 -478 0
-29 -479 0
-30 -480 0
-1 -481 0
-2 -482 0
-3 -483 0
-4 -484 0
-5 -485 0
-6 -486 0
-7 -487 0
-8 -488 0
-9 -489 0
-10 -490 0
-11 -491 0
-12 -492 0
-13 -493 0
-14 -494 0
-15 -495 0
-16 -496 0
-17 -497 0
-18 -498 0
-19 -499 0
-20 -500 0
-21 -501 0
-22 -502 0
-23 -503 0
-24 -504 0
-25 -505 0
-26 -506 0
-27 -507 0
-28 -508 0
-29 -509 0
-30 -510 0
-1 -511 0
-2 -512 0
-3 -513 0
-4 -514 0
-5 -515 0
-6 -516 0
-7 -517 0
-8 -518 0
-9 -519 0
-10 -520 0
-11 -521 0
-12 -522 0
-13 -523 0
-14 -524 0
-15 -525 0
-16 -526 0
-17 -527 0
-18 -528 0
-19 -529 0
-20 -530 0
-21 -531 0
-22 -532 0
-23 -533 0
-24 -534 0
-25 -535 0
-26 -536 0
-27 -537 0
-28 -538 0
-29 -539 0
-30 -540 0
-1 -541 0
-2 -542 0
-3 -543 0
-4 -544 0
-5 -545 0
-6 -546 0
-7 -547 0
-8 -548 0
-9 -549 0
-10 -550 0
-11 -551 0
-12 -552 0
-13 -553 0
-14 -554 0
-15 -555 0
-16 -556 0
-17 -557 0
-18 -558 0
-19 -559 0
-20 -560 0
-21 -561 0
-22 -562 0
-23 -563 0
-24 -564 0
-25 -565 0
-26 -566 0
-27 -567 0
-28 -568 0
-29 -569 0
-30 -570 0
-1 -571 0
-2 -572 0
-3 -573 0
-4 -574 0
-5 -575 0
-6 -576 0
-7 -577 0
-8 -578 0
-9 -579 0
-10 -580 0
-11 -581 0
-12 -582 0
-13 -583 0
-14 -584 0
-15 -585 0
-16 -586 0
-17 -587 0
-18 -588 0
-19 -589 0
-20 -590 0
-21 -591 0
-22 -592 0
-23 -593 0
-24 -594 0
-25 -595 0
-26 -596 0
-27 -597 0
-28 -598 0
-29 -599 0
-30 -600 0
-1 -601 0
-2 -602 0
-3 -603 0
-4 -604 0
-5 -605 0
-6 -606 0
-7 -607 0
-8 -608 0
-9 -609 0
-10 -610 0
-11 -611 0
-12 -612 0
-13 -613 0
-14 -614 0
-15 -615 0
-16 -616 0
-17 -617 0
-18 -618 0
-19 -619 0
-20 -620 0
-21 -621 0
-22 -622 0
-23 -623 0
-24 -624 0
-25 -625 0
-26 -626 0
-27 -627 0
-28 -628 0
-29 -629 0
-30 -630 0
-1 -631 0
-2 -632 0
-3 -633 0
-4 -634 0
-5 -635 0
-6 -636 0
-7 -637 0
-8 -638 0
-9 -639 0
-10 -640 0
-11 -641 0
-12 -642 0
-13 -643 0
-14 -644 0
-15 -645 0
-16 -646 0
-17 -647 0
-18 -648 0
-19 -649 0
-20 -650 0
-21 -651 0
-22 -652 0
-23 -653 0
-24 -654 0
-25 -655 0
-26 -656 0
-27 -657 0
-28 -658 0
-29 -659 0
-30 -660 0
-1 -661 0
-2 -662 0
-3 -663 0
-4 -664 0
-5 -665 0
-6 -666 0
-7 -667 0
-8 -668 0
-9 -669 0
-10 -670 0
-11 -671 0
-12 -672 0
-13 -673 0
-14 -674 0
-15 -675 0
-16 -676 0
-17 -677 0
-18 -678 0
-19 -679 0
-20 -680 0
-21 -681 0
-22 -682 0
-23 -683 0
-24 -684 0
-25 -685 0
-26 -686 0
-27 -687 0
-28 -688 0
-29 -689 0
-30 -690 0
-1 -691 0
-2 -692 0
-3 -693 0
-4 -694 0
-5 -695 0
-6 -696 0
-7 -697 0
-8 -698 0
-9 -699 0
-10 -700 0
-11 -701 0
-12 -702 0
-13 -703 0
-14 -704 0
-15 -705 0
-16 -706 0
-17 -707 0
-18 -708 0
-19 -709 0
-20 -710 0
-21 -711 0
-22 -712 0
-23 -713 0
-24 -714 0
-25 -715 0
-26 -716 0
-27 -717 0
-28 -718 0
-29 -719 0
-30 -720 0
-1 -721 0
-2 -722 0
-3 -723 0
-4 -724 0
-5 -725 0
-6 -726 0
-7 -727 0
-8 -728 0
-9 -729 0
-10 -730 0
-11 -731 0
-12 -732 0
-13 -733 0
-14 -734 0
-15 -735 0
-16 -736 0
-17 -737 0
-18 -738 0
-19 -739 0
-20 -740 0
-21 -741 0
-22 -742 0
-23 -743 0
-24 -744 0
-25 -745 0
-26 -746 0
-27 -747 0
-28 -748 0
-29 -749 0
-30 -750 0
-1 -751 0
-2 -752 0
-3 -753 0
-4 -754 0
-5 -755 0
-6 -756 0
-7 -757 0
-8 -758 0
-9 -759 0
-10 -760 0
-11 -761 0
-12 -762 0
-13 -763 0
-14 -764 0
-15 -765 0
-16 -766 0
-17 -767 0
-18 -768 0
-19 -769 0
-20 -770 0
-21 -771 0
-22 -772 0
-23 -773 0
-24 -774 0
-25 -775 0
-26 -776 0
-27 -777 0
-28 -778 0
-29 -779 0
-30 -780 0
-1 -781 0
-2 -782 0
-3 -783 0
-4 -784 0
-5 -785 0
-6 -786 0
-7 -787 0
-8 -788 0
-9 -789 0
-10 -790 0
-11 -791 0
-12 -792 0
-13 -793 0
-14 -794 0
-15 -795 0
-16 -796 0
-17 -797 0
-18 -798 0
-19 -799 0
-20 -800 0
-21 -801 0
-22 -802 0
-23 -803 0
-24 -804 0
-25 -805 0
-26 -806 0
-27 -807 0
-28 -808 0
-29 -809 0
-30 -810 0
-1 -811 0
-2 -812 0
-3 -813 0
-4 -814 0
-5 -815 0
-6 -816 0
-7 -817 0
-8 -818 0
-9 -819 0
-10 -820 0
-11 -821 0
-12 -822 0
-13 -823 0
-14 -824 0
-15 -825 0
-16 -826 0
-17 -827 0
-18 -828 0
-19 -829 0
-20 -830 0
-21 -831 0
-22 -832 0
-23 -833 0
-24 -834 0
-25 -835 0
-26 -836 0
-27 -837 0
-28 -838 0
-29 -839 0
-30 -840 0
-1 -841 0
-2 -842 0
-3 -843 0
-4 -844 0
-5 -845 0
-6 -846 0
-7 -847 0
-8 -848 0
-9 -849 0
-10 -850 0
-11 -851 0
-12 -852 0
-13 -853 0
-14 -854 0
-15 -855 0
-16 -856 0
-17 -857 0
-18 -858 0
-19 -859 0
-20 -860 0
-21 -861 0
-22 -862 0
-23 -863 0
-24 -864 0
-25 -865 0
-26 -866 0
-27 -867 0
-28 -868 0
-29 -869 0
-30 -870 0
-1 -871 0
-2 -872 0
-3 -873 0
-4 -874 0
-5 -875 0
-6 -876 0
-7 -877 0
-8 -878 0
-9 -879 0
-10 -880 0
-11 -881 0
-12 -882 0
-13 -883 0
-14 -884 0
-15 -885 0
-16 -886 0
-17 -887 0
-18 -888 0
-19 -889 0
-20 -890 0
-21 -891 0
-22 -892 0
-23 -893 0
-24 -894 0
-25 -895 0
-26 -896 0
-27 -897 0
-28 -898 0
-29 -899 0
-30 -900 0
-1 -901 0
-2 -902 0
-3 -903 0
-4 -904 0
-5 -905 0
-6 -906 0
-7 -907 0
-8 -908 0
-9 -909 0
-10 -910 0
-11 -911 0
-12 -912 0
-13 -913 0
-14 -914 0
-15 -915 0
-16 -916 0
-17 -917 0
-18 -918 0
-19 -919 0
-20 -920 0
-21 -921 0
-22 -922 0
-23 -923 0
-24 -924 0
-25 -925 0
-26 -926 0
-27 -927 0
-28 -928 0
-29 -929 0
-30 -930 0
-31 -61 0
-32 -62 0
-33 -63 0
-34 -64 0
-35 -65 0
-36 -66 0
-37 -67 0
-38 -68 0
-39 -69 0
-40 -70 0
-41 -71 0
-42 -72 0
-43 -73 0
-44 -74 0
-45 -75 0
-46 -76 0
-47 -77 0
-48 -78 0
-49 -79 0
-50 -80 0
-51 -81 0
-52 -82 0
-53 -83 0
-54 -84 0
-55 -85 0
-56 -86 0
-57 -87 0
-58 -88 0
-59 -89 0
-60 -90 0
-31 -91 0
-32 -92 0
-33 -93 0
-34 -94 0
-35 -95 0
-36 -96 0
-37 -97 0
-38 -98 0
-39 -99 0
-40 -100 0
-41 -101 0
-42 -102 0
-43 -103 0
-44 -104 0
-45 -105 0
-46 -106 0
-47 -107 0
-48 -108 0
-49 -109 0
-50 -110 0
-51 -111 0
-52 -112 0
-53 -113 0
-54 -114 0
-55 -115 0
-56 -116 0
-57 -117 0
-58 -118 0
-59 -119 0
-60 -120 0
-31 -121 0
-32 -122 0
-33 -123 0
-34 -124 0
-35 -125 0
-36 -126 0
-37 -127 0
-38 -128 0
-39 -129 0
-40 -130 0
-41 -131 0
-42 -132 0
-43 -133 0
-44 -134 0
-45 -135 0
-46 -136 0
-47 -137 0
-48 -138 0
-49 -139 0
-50 -140 0
-51 -141 0
-52 -142 0
-53 -143 0
-54 -144 0
-55 -145 0
-56 -146 0
-57 -147 0
-58 -148 0
-59 -149 0
-60 -150 0
-31 -151 0
-32 -152 0
-33 -153 0
-34 -154 0
-35 -155 0
-36 -156 0
-37 -157 0
-38 -158 0
-39 -159 0
-40 -160 0
-41 -161 0
-42 -162 0
-43 -163 0
-44 -164 0
-45 -165 0
-46 -166 0
-47 -167 0
-48 -168 0
-49 -169 0
-50 -170 0
-51 -171 0
-52 -172 0
-53 -173 0
-54 -174 0
-55 -175 0
-56 -176 0
-57 -177 0
-58 -178 0
-59 -179 0
-60 -180 0
-31 -181 0
-32 -182 0
-33 -183 0
-34 -184 0
-35 -185 0
-36 -186 0
-37 -187 0
-38 -188 0
-39 -189 0
-40 -190 0
-41 -191 0
-42 -192 0
-43 -193 0
-44 -194 0
-45 -195 0
-46 -196 0
-47 -197 0
-48 -198 0
-49 -199 0
-50 -200 0
-51 -201 0
-52 -202 0
-53 -203 0
-54 -204 0
-55 -205 0
-56 -206 0
-57 -207 0
-58 -208 0
-59 -209 0
-60 -210 0
-31 -211 0
-32 -212 0
-33 -213 0
-34 -214 0
-35 -215 0
-36 -216 0
-37 -217 0
-38 -218 0
-39 -219 0
-40 -220 0
-41 -221 0
-42 -222 0
-43 -223 0
-44 -224 0
-45 -225 0
-46 -226 0
-47 -227 0
-48 -228 0
-49 -229 0
-50 -230 0
-51 -231 0
-52 -232 0
-53 -233 0
-54 -234 0
-55 -235 0
-56 -236 0
-57 -237 0
-58 -238 0
-59 -239 0
-60 -240 0
-31 -241 0
-32 -242 0
-33 -243 0
-34 -244 0
-35 -245 0
-36 -246 0
-37 -247 0
-38 -248 0
-39 -249 0
-40 -250 0
-41 -251 0
-42 -252 0
-43 -253 0
-44 -254 0
-45 -255 0
-46 -256 0
-47 -257 0
-48 -258 0
-49 -259 0
-50 -260 0
-51 -261 0
-52 -262 0
-53 -263 0
-54 -264 0
-55 -265 0
-56 -266 0
-57 -267 0
-58 -268 0
-59 -269 0
-60 -270 0
-31 -271 0
-32 -272 0
-33 -273 0
-34 -274 0
-35 -275 0
-36 -276 0
-37 -277 0
-38 -278 0
-39 -279 0
-40 -280 0
-41 -281 0
-42 -282 0
-43 -283 0
-44 -284 0
-45 -285 0
-46 -286 0
-47 -287 0
-48 -288 0
-49 -289 0
-50 -290 0
-51 -291 0
-52 -292 0
-53 -293 0
-54 -294 0
-55 -295 0
-56 -296 0
-57 -297 0
-58 -298 0
-59 -299 0
-60 -300 0
-31 -301 0
-32 -302 0
-33 -303 0
-34 -304 0
-35 -305 0
-36 -306 0
-37 -307 0
-38 -308 0
-39 -309 0
-40 -310 0
-41 -311 0
-42 -312 0
-43 -313 0
-44 -314 0
-45 -315 0
-46 -316 0
-47 -317 0
-48 -318 0
-49 -319 0
-50 -320 0
-51 -321 0
-52 -322 0
-53 -323 0
-54 -324 0
-55 -325 0
-56 -326 0
-57 -327 0
-58 -328 0
-59 -329 0
-60 -330 0
-31 -331 0
-32 -332 0
-33 -333 0
-34 -334 0
-35 -335 0
-36 -336 0
-37 -337 0
-38 -338 0
-39 -339 0
-40 -340 0
-41 -341 0
-42 -342 0
-43 -343 0
-44 -344 0
-45 -345 0
-46 -346 0
-47 -347 0
-48 -348 0
-49 -349 0
-50 -350 0
-51 -351 0
-52 -352 0
-53 -353 0
-54 -354 0
-55 -355 0
-56 -356 0
-57 -357 0
-58 -358 0
-59 -359 0
-60 -360 0
-31 -361 0
-32 -362 0
-33 -363 0
-34 -364 0
-35 -365 0
-36 -366 0
-37 -367 0
-38 -368 0
-39 -369 0
-40 -370 0
-41 -371 0
-42 -372 0
-43 -373 0
-44 -374 0
-45 -375 0
-46 -376 0
-47 -377 0
-48 -378 0
-49 -379 0
-50 -380 0
-51 -381 0
-52 -382 0
-53 -383 0
-54 -384 0
-55 -385 0
-56 -386 0
-57 -387 0
-58 -388 0
-59 -389 0
-60 -390 0
-31 -391 0
-32 -392 0
-33 -393 0
-34 -394 0
-35 -395 0
-36 -396 0
-37 -397 0
-38 -398 0
-39 -399 0
-40 -400 0
-41 -401 0
-42 -402 0
-43 -403 0
-44 -404 0
-45 -405 0
-46 -406 0
-47 -407 0
-48 -408 0
-49 -409 0
-50 -410 0
-51 -411 0
-52 -412 0
-53 -413 0
-54 -414 0
-55 -415 0
-56 -416 0
-57 -417 0
-58 -418 0
-59 -419 0
-60 -420 0
-31 -421 0
-32 -422 0
-33 -423 0
-34 -424 0
-35 -425 0
-36 -426 0
-37 -427 0
-38 -428 0
-39 -429 0
-40 -430 0
-41 -431 0
-42 -432 0
-43 -433 0
-44 -434 0
-45 -435 0
-46 -436 0
-47 -437 0
-48 -438 0
-49 -439 0
-50 -440 0
-51 -441 0
-52 -442 0
-53 -443 0
-54 -444 0
-55 -445 0
-56 -446 0
-57 -447 0
-58 -448 0
-59 -449 0
-60 -450 0
-31 -451 0
-32 -452 0
-33 -453 0
-34 -454 0
-35 -455 0
-36 -456 0
-37 -457 0
-38 -458 0
-39 -459 0
-40 -460 0
-41 -461 0
-42 -462 0
-43 -463 0
-44 -464 0
-45 -465 0
-46 -466 0
-47 -467 0
-48 -468 0
-49 -469 0
-50 -470 0
-51 -471 0
-52 -472 0
-53 -473 0
-54 -474 0
-55 -475 0
-56 -476 0
-57 -477 0
-58 -478 0
-59 -479 0
-60 -480 0
-31 -481 0
-32 -482 0
-33 -483 0
-34 -484 0
-35 -485 0
-36 -486 0
-37 -487 0
-38 -488 0
-39 -489 0
-40 -490 0
-41 -491 0
-42 -492 0
-43 -493 0
-44 -494 0
-45 -495 0
-46 -496 0
-47 -497 0
-48 -498 0
-49 -499 0
-50 -500 0
-51 -501 0
-52 -502 0
-53 -503 0
-54 -504 0
-55 -505 0
-56 -506 0
-57 -507 0
-58 -508 0
-59 -509 0
-60 -510 0
-31 -511 0
-32 -512 0
-33 -513 0
-34 -514 0
-35 -515 0
-36 -516 0
-37 -517 0
-38 -518 0
-39 -519 0
-40 -520 0
-41 -521 0
-42 -522 0
-43 -523 0
-44 -524 0
-45 -525 0
-46 -526 0
-47 -527 0
-48 -528 0
-49 -529 0
-50 -530 0
-51 -531 0
-52 -532 0
-53 -533 0
-54 -534 0
-55 -535 0
-56 -536 0
-57 -537 0
-58 -538 0
-59 -539 0
-60 -540 0
-31 -541 0
-32 -542 0
-33 -543 0
-34 -544 0
-35 -545 0
-36 -546 0
-37 -547 0
-38 -548 0
-39 -549 0
-40 -550 0
-41 -551 0
-42 -552 0
-43 -553 0
-44 -554 0
-45 -555 0
-46 -556 0
-47 -557 0
-48 -558 0
-49 -559 0
-50 -560 0
-51 -561 0
-52 -562 0
-53 -563 0
-54 -564 0
-55 -565 0
-56 -566 0
-57 -567 0
-58 -568 0
-59 -569 0
-60 -570 0
-31 -571 0
-32 -572 0
-33 -573 0
-34 -574 0
-35 -575 0
-36 -576 0
-37 -577 0
-38 -578 0
-39 -579 0
-40 -580 0
-41 -581 0
-42 -582 0
-43 -583 0
-44 -584 0
-45 -585 0
-46 -586 0
-47 -587 0
-48 -588 0
-49 -589 0
-50 -590 0
-51 -591 0
-52 -592 0
-53 -593 0
-54 -594 0
-55 -595 0
-56 -596 0
-57 -597 0
-58 -598 0
-59 -599 0
-60 -600 0
-31 -601 0
-32 -602 0
-33 -603 0
-34 -604 0
-35 -605 0
-36 -606 0
-37 -607 0
-38 -608 0
-39 -609 0
-40 -610 0
-41 -611 0
-42 -612 0
-43 -613 0
-44 -614 0
-45 -615 0
-46 -616 0
-47 -617 0
-48 -618 0
-49 -619 0
-50 -620 0
-51 -621 0
-52 -622 0
-53 -623 0
-54 -624 0
-55 -625 0
-56 -626 0
-57 -627 0
-58 -628 0
-59 -629 0
-60 -630 0
-31 -631 0
-32 -632 0
-33 -633 0
-34 -634 0
-35 -635 0
-36 -636 0
-37 -637 0
-38 -638 0
-39 -639 0
-40 -640 0
-41 -641 0
-42 -642 0
-43 -643 0
-44 -644 0
-45 -645 0
-46 -646 0
-47 -647 0
-48 -648 0
-49 -649 0
-50 -650 0
-51 -651 0
-52 -652 0
-53 -653 0
-54 -654 0
-55 -655 0
-56 -656 0
-57 -657 0
-58 -658 0
-59 -659 0
-60 -660 0
-31 -661 0
-32 -662 0
-33 -663 0
-34 -664 0
-35 -665 0
-36 -666 0
-37 -667 0
-38 -668 0
-39 -669 0
-40 -670 0
-41 -671 0
-42 -672 0
-43 -673 0
-44 -674 0
-45 -675 0
-46 -676 0
-47 -677 0
-48 -678 0
-49 -679 0
-50 -680 0
-51 -681 0
-52 -682 0
-53 -683 0
-54 -684 0
-55 -685 0
-56 -686 0
-57 -687 0
-58 -688 0
-59 -689 0
-60 -690 0
-31 -691 0
-32 -692 0
-33 -693 0
-34 -694 0
-35 -695 0
-36 -696 0
-37 -697 0
-38 -698 0
-39 -699 0
-40 -700 0
-41 -701 0
-42 -702 0
-43 -703 0
-44 -704 0
-45 -705 0
-46 -706 0
-47 -707 0
-48 -708 0
-49 -709 0
-50 -710 0
-51 -711 0
-52 -712 0
-53 -713 0
-54 -714 0
-55 -715 0
-56 -716 0
-57 -717 0
-58 -718 0
-59 -719 0
-60 -720 0
-31 -721 0
-32 -722 0
-33 -723 0
-34 -724 0
-35 -725 0
-36 -726 0
-37 -727 0
-38 -728 0
-39 -729 0
-40 -730 0
-41 -731 0
-42 -732 0
-43 -733 0
-44 -734 0
-45 -735 0
-46 -736 0
-47 -737 0
-48 -738 0
-49 -739 0
-50 -740 0
-51 -741 0
-52 -742 0
-53 -743 0
-54 -744 0
-55 -745 0
-56 -746 0
-57 -747 0
-58 -748 0
-59 -749 0
-60 -750 0
-31 -751 0
-32 -752 0
-33 -753 0
-34 -754 0
-35 -755 0
-36 -756 0
-37 -757 0
-38 -758 0
-39 -759 0
-40 -760 0
-41 -761 0
-42 -762 0
-43 -763 0
-44 -764 0
-45 -765 0
-46 -766 0
-47 -767 0
-48 -768 0
-49 -769 0
-50 -770 0
-51 -771 0
-52 -772 0
-53 -773 0
-54 -774 0
-55 -775 0
-56 -776 0
-57 -777 0
-58 -778 0
-59 -779 0
-60 -780 0
-31 -781 0
-32 -782 0
-33 -783 0
-34 -784 0
-35 -785 0
-36 -786 0
-37 -787 0
-38 -788 0
-39 -789 0
-40 -790 0
-41 -791 0
-42 -792 0
-43 -793 0
-44 -794 0
-45 -795 0
-46 -796 0
-47 -797 0
-48 -798 0
-49 -799 0
-50 -800 0
-51 -801 0
-52 -802 0
-53 -803 0
-54 -804 0
-55 -805 0
-56 -806 0
-57 -807 0
-58 -808 0
-59 -809 0
-60 -810 0
-31 -811 0
-32 -812 0
-33 -813 0
-34 -814 0
-35 -815 0
-36 -816 0
-37 -817 0
-38 -818 0
-39 -819 0
-40 -820 0
-41 -821 0
-42 -822 0
-43 -823 0
-44 -824 0
-45 -825 0
-46 -826 0
-47 -827 0
-48 -828 0
-49 -829 0
-50 -830 0
-51 -831 0
-52 -832 0
-53 -833 0
-54 -834 0
-55 -835 0
-56 -836 0
-57 -837 0
-58 -838 0
-59 -839 0
-60 -840 0
-31 -841 0
-32 -842 0
-33 -843 0
-34 -844 0
-35 -845 0
-36 -846 0
-37 -847 0
-38 -848 0
-39 -849 0
-40 -850 0
-41 -851 0
-42 -852 0
-43 -853 0
-44 -854 0
-45 -855 0
-46 -856 0
-47 -857 0
-48 -858 0
-49 -859 0
-50 -860 0
-51 -861 0
-52 -862 0
-53 -863 0
-54 -864 0
-55 -865 0
-56 -866 0
-57 -867 0
-58 -868 0
-59 -869 0
-60 -870 0
-31 -871 0
-32 -872 0
-33 -873 0
-34 -874 0
-35 -875 0
-36 -876 0
-37 -877 0
-38 -878 0
-39 -879 0
-40 -880 0
-41 -881 0
-42 -882 0
-43 -883 0
-44 -884 0
-45 -885 0
-46 -886 0
-47 -887 0
-48 -888 0
-49 -889 0
-50 -890 0
-51 -891 0
-52 -892 0
-53 -893 0
-54 -894 0
-55 -895 0
-56 -896 0
-57 -897 0
-58 -898 0
-59 -899 0
-60 -900 0
-31 -901 0
-32 -902 0
-33 -903 0
-34 -904 0
-35 -905 0
-36 -906 0
-37 -907 0
-38 -908 0
-39 -909 0
-40 -910 0
-41 -911 0
-42 -912 0
-43 -913 0
-44 -914 0
-45 -915 0
-46 -916 0
-47 -917 0
-48 -918 0
-49 -919 0
-50 -920 0
-51 -921 0
-52 -922 0
-53 -923 0
-54 -924 0
-55 -925 0
-56 -926 0
-57 -927 0
-58 -928 0
-59 -929 0
-60 -930 0
-61 -91 0
-62 -92 0
-63 -93 0
-64 -94 0
-65 -95 0
-66 -96 0
-67 -97 0
-68 -98 0
-69 -99 0
-70 -100 0
-71 -101 0
-72 -102 0
-73 -103 0
-74 -104 0
-75 -105 0
-76 -106 0
-77 -107 0
-78 -108 0
-79 -109 0
-80 -110 0
-81 -111 0
-82 -112 0
-83 -113 0
-84 -114 0
-85 -115 0
-86 -116 0
-87 -117 0
-88 -118 0
-89 -119 0
-90 -120 0
-61 -121 0
-62 -122 0
-63 -123 0
-64 -124 0
-65 -125 0
-66 -126 0
-67 -127 0
-68 -128 0
-69 -129 0
-70 -130 0
-71 -131 0
-72 -132 0
-73 -133 0
-74 -134 0
-75 -135 0
-76 -136 0
-77 -137 0
-78 -138 0
-79 -139 0
-80 -140 0
-81 -141 0
-82 -142 0
-83 -143 0
-84 -144 0
-85 -145 0
-86 -146 0
-87 -147 0
-88 -148 0
-89 -149 0
-90 -150 0
-61 -151 0
-62 -152 0
-63 -153 0
-64 -154 0
-65 -155 0
-66 -156 0
-67 -157 0
-68 -158 0
-69 -159 0
-70 -160 0
-71 -161 0
-72 -162 0
-73 -163 0
-74 -164 0
-75 -165 0
-76 -166 0
-77 -167 0
-78 -168 0
-79 -169 0
-80 -170 0
-81 -171 0
-82 -172 0
-83 -173 0
-84 -174 0
-85 -175 0
-86 -176 0
-87 -177 0
-88 -178 0
-89 -179 0
-90 -180 0
-61 -181 0
-62 -182 0
-63 -183 0
-64 -184 0
-65 -185 0
-66 -186 0
-67 -187 0
-68 -188 0
-69 -189 0
-70 -190 0
-71 -191 0
-72 -192 0
-73 -193 0
-74 -194 0
-75 -195 0
-76 -196 0
-77 -197 0
-78 -198 0
-79 -199 0
-80 -200 0
-81 -201 0
-82 -202 0
-83 -203 0
-84 -204 0
-85 -205 0
-86 -206 0
-87 -207 0
-88 -208 0
-89 -209 0
-90 -210 0
-61 -211 0
-62 -212 0
-63 -213 0
-64 -214 0
-65 -215 0
-66 -216 0
-67 -217 0
-68 -218 0
-69 -219 0
-70 -220 0
-71 -221 0
-72 -222 0
-73 -223 0
-74 -224 0
-75 -225 0
-76 -226 0
-77 -227 0
-78 -228 0
-79 -229 0
-80 -230 0
-81 -231 0
-82 -232 0
-83 -233 0
-84 -234 0
-85 -235 0
-86 -236 0
-87 -237 0
-88 -238 0
-89 -239 0
-90 -240 0
-61 -241 0
-62 -242 0
-63 -243 0
-64 -244 0
-65 -245 0
-66 -246 0
-67 -247 0
-68 -248 0
-69 -249 0
-70 -250 0
-71 -251 0
-72 -252 0
-73 -253 0
-74 -254 0
-75 -255 0
-76 -256 0
-77 -257 0
-78 -258 0
-79 -259 0
-80 -260 0
-81 -261 0
-82 -262 0
-83 -263 0
-84 -264 0
-85 -265 0
-86 -266 0
-87 -267 0
-88 -268 0
-89 -269 0
-90 -270 0
-61 -271 0
-62 -272 0
-63 -273 0
-64 -274 0
-65 -275 0
-66 -276 0
-67 -277 0
-68 -278 0
-69 -279 0
-70 -280 0
-71 -281 0
-72 -282 0
-73 -283 0
-74 -284 0
-75 -285 0
-76 -286 0
-77 -287 0
-78 -288 0
-79 -289 0
-80 -290 0
-81 -291 0
-82 -292 0
-83 -293 0
-84 -294 0
-85 -295 0
-86 -296 0
-87 -297 0
-88 -298 0
-89 -299 0
-90 -300 0
-61 -301 0
-62 -302 0
-63 -303 0
-64 -304 0
-65 -305 0
-66 -306 0
-67 -307 0
-68 -308 0
-69 -309 0
-70 -310 0
-71 -311 0
-72 -312 0
-73 -313 0
-74 -314 0
-75 -315 0
-76 -316 0
-77 -317 0
-78 -318 0
-79 -319 0
-80 -320 0
-81 -321 0
-82 -322 0
-83 -323 0
-84 -324 0
-85 -325 0
-86 -326 0
-87 -327 0
-88 -328 0
-89 -329 0
-90 -330 0
-61 -331 0
-62 -332 0
-63 -333 0
-64 -334 0
-65 -335 0
-66 -336 0
-67 -337 0
-68 -338 0
-69 -339 0
-70 -340 0
-71 -341 0
-72 -342 0
-73 -343 0
-74 -344 0
-75 -345 0
-76 -346 0
-77 -347 0
-78 -348 0
-79 -349 0
-80 -350 0
-81 -351 0
-82 -352 0
-83 -353 0
-84 -354 0
-85 -355 0
-86 -356 0
-87 -357 0
-88 -358 0
-89 -359 0
-90 -360 0
-61 -361 0
-62 -362 0
-63 -363 0
-64 -364 0
-65 -365 0
-66 -366 0
-67 -367 0
-68 -368 0
-69 -369 0
-70 -370 0
-71 -371 0
-72 -372 0
-73 -373 0
-74 -374 0
-75 -375 0
-76 -376 0
-77 -377 0
-78 -378 0
-79 -379 0
-80 -380 0
-81 -381 0
-82 -382 0
-83 -383 0
-84 -384 0
-85 -385 0
-86 -386 0
-87 -387 0
-88 -388 0
-89 -389 0
-90 -390 0
-61 -391 0
-62 -392 0
-63 -393 0
-64 -394 0
-65 -395 0
-66 -396 0
-67 -397 0
-68 -398 0
-69 -399 0
-70 -400 0
-71 -401 0
-72 -402 0
-73 -403 0
-74 -404 0
-75 -405 0
-76 -406 0
-77 -407 0
-78 -408 0
-79 -409 0
-80 -410 0
-81 -411 0
-82 -412 0
-83 -413 0
-84 -414 0
-85 -415 0
-86 -416 0
-87 -417 0
-88 -418 0
-89 -419 0
-90 -420 0
-61 -421 0
-62 -422 0
-63 -423 0
-64 -424 0
-65 -425 0
-66 -426 0
-67 -427 0
-68 -428 0
-69 -429 0
-70 -430 0
-71 -431 0
-72 -432 0
-73 -433 0
-74 -434 0
-75 -435 0
-76 -436 0
-77 -437 0
-78 -438 0
-79 -439 0
-80 -440 0
-81 -441 0
-82 -442 0
-83 -443 0
-84 -444 0
-85 -445 0
-86 -446 0
-87 -447 0
-88 -448 0
-89 -449 0
-90 -450 0
-61 -451 0
-62 -452 0
-63 -453 0
-64 -454 0
-65 -455 0
-66 -456 0
-67 -457 0
-68 -458 0
-69 -459 0
-70 -460 0
-71 -461 0
-72 -462 0
-73 -463 0
-74 -464 0
-75 -465 0
-76 -466 0
-77 -467 0
-78 -468 0
-79 -469 0
-80 -470 0
-81 -471 0
-82 -472 0
-83 -473 0
-84 -474 0
-85 -475 0
-86 -476 0
-87 -477 0
-88 -478 0
-89 -479 0
-90 -480 0
-61 -481 0
-62 -482 0
-63 -483 0
-64 -484 0
-65 -485 0
-66 -486 0
-67 -487 0
-68 -488 0
-69 -489 0
-70 -490 0
-71 -491 0
-72 -492 0
-73 -493 0
-74 -494 0
-75 -495 0
-76 -496 0
-77 -497 0
-78 -498 0
-79 -499 0
-80 -500 0
-81 -501 0
-82 -502 0
-83 -503 0
-84 -504 0
-85 -505 0
-86 -506 0
-87 -507 0
-88 -508 0
-89 -509 0
-90 -510 0
-61 -511 0
-62 -512 0
-63 -513 0
-64 -514 0
-65 -515 0
-66 -516 0
-67 -517 0
-68 -518 0
-69 -519 0
-70 -520 0
-71 -521 0
-72 -522 0
-73 -523 0
-74 -524 0
-75 -525 0
-76 -526 0
-77 -527 0
-78 -528 0
-79 -529 0
-80 -530 0
-81 -531 0
-82 -532 0
-83 -533 0
-84 -534 0
-85 -535 0
-86 -536 0
-87 -537 0
-88 -538 0
-89 -539 0
-90 -540 0
-61 -541 0
-62 -542 0
-63 -543 0
-64 -544 0
-65 -545 0
-66 -546 0
-67 -547 0
-68 -548 0
-69 -549 0
-70 -550 0
-71 -551 0
-72 -552 0
-73 -553 0
-74 -554 0
-75 -555 0
-76 -556 0
-77 -557 0
-78 -558 0
-79 -559 0
-80 -560 0
-81 -561 0
-82 -562 0
-83 -563 0
-84 -564 0
-85 -565 0
-86 -566 0
-87 -567 0
-88 -568 0
-89 -569 0
-90 -570 0
-61 -571 0
-62 -572 0
-63 -573 0
-64 -574 0
-65 -575 0
-66 -576 0
-67 -577 0
-68 -578 0
-69 -579 0
-70 -580 0
-71 -581 0
-72 -582 0
-73 -583 0
-74 -584 0
-75 -585 0
-76 -586 0
-77 -587 0
-78 -588 0
-79 -589 0
-80 -590 0
-81 -591 0
-82 -592 0
-83 -593 0
-84 -594 0
-85 -595 0
-86 -596 0
-87 -597 0
-88 -598 0
-89 -599 0
-90 -600 0
-61 -601 0
-62 -602 0
-63 -603 0
-64 -604 0
-65 -605 0
-66 -606 0
-67 -607 0
-68 -608 0
-69 -609 0
-70 -610 0
-71 -611 0
-72 -612 0
-73 -613 0
-74 -614 0
-75 -615 0
-76 -616 0
-77 -617 0
-78 -618 0
-79 -619 0
-80 -620 0
-81 -621 0
-82 -622 0
-83 -623 0
-84 -624 0
-85 -625 0
-86 -626 0
-87 -627 0
-88 -628 0
-89 -629 0
-90 -630 0
-61 -631 0
-62 -632 0
-63 -633 0
-64 -634 0
-65 -635 0
-66 -636 0
-67 -637 0
-68 -638 0
-69 -639 0
-70 -640 0
-71 -641 0
-72 -642 0
-73 -643 0
-74 -644 0
-75 -645 0
-76 -646 0
-77 -647 0
-78 -648 0
-79 -649 0
-80 -650 0
-81 -651 0
-82 -652 0
-83 -653 0
-84 -654 0
-85 -655 0
-86 -656 0
-87 -657 0
-88 -658 0
-89 -659 0
-90 -660 0
-61 -661 0
-62 -662 0
-63 -663 0
-64 -664 0
-65 -665 0
-66 -666 0
-67 -667 0
-68 -668 0
-69 -669 0
-70 -670 0
-71 -671 0
-72 -672 0
-73 -673 0
-74 -674 0
-75 -675 0
-76 -676 0
-77 -677 0
-78 -678 0
-79 -679 0
-80 -680 0
-81 -681 0
-82 -682 0
-83 -683 0
-84 -684 0
-85 -685 0
-86 -686 0
-87 -687 0
-88 -688 0
-89 -689 0
-90 -690 0
-61 -691 0
-62 -692 0
-63 -693 0
-64 -694 0
-65 -695 0
-66 -696 0
-67 -697 0
-68 -698 0
-69 -699 0
-70 -700 0
-71 -701 0
-72 -702 0
-73 -703 0
-74 -704 0
-75 -705 0
-76 -706 0
-77 -707 0
-78 -708 0
-79 -709 0
-80 -710 0
-81 -711 0
-82 -712 0
-83 -713 0
-84 -714 0
-85 -715 0
-86 -716 0
-87 -717 0
-88 -718 0
-89 -719 0
-90 -720 0
-61 -721 0
-62 -722 0
-63 -723 0
-64 -724 0
-65 -725 0
-66 -726 0
-67 -727 0
-68 -728 0
-69 -729 0
-70 -730 0
-71 -731 0
-72 -732 0
-73 -733 0
-74 -734 0
-75 -735 0
-76 -736 0
-77 -737 0
-78 -738 0
-79 -739 0
-80 -740 0
-81 -741 0
-82 -742 0
-83 -743 0
-84 -744 0
-85 -745 0
-86 -746 0
-87 -747 0
-88 -748 0
-89 -749 0
-90 -750 0
-61 -751 0
-62 -752 0
-63 -753 0
-64 -754 0
-65 -755 0
-66 -756 0
-67 -757 0
-68 -758 0
-69 -759 0
-70 -760 0
-71 -761 0
-72 -762 0
-73 -763 0
-74 -764 0
-75 -765 0
-76 -766 0
-77 -767 0
-78 -768 0
-79 -769 0
-80 -770 0
-81 -771 0
-82 -772 0
-83 -773 0
-84 -774 0
-85 -775 0
-86 -776 0
-87 -777 0
-88 -778 0
-89 -779 0
-90 -780 0
-61 -781 0
-62 -782 0
-63 -783 0
-64 -784 0
-65 -785 0
-66 -786 0
-67 -787 0
-68 -788 0
-69 -789 0
-70 -790 0
-71 -791 0
-72 -792 0
-73 -793 0
-74 -794 0
-75 -795 0
-76 -796 0
-77 -797 0
-78 -798 0
-79 -799 0
-80 -800 0
-81 -801 0
-82 -802 0
-83 -803 0
-84 -804 0
-85 -805 0
-86 -806 0
-87 -807 0
-88 -808 0
-89 -809 0
-90 -810 0
-61 -811 0
-62 -812 0
-63 -813 0
-64 -814 0
-65 -815 0
-66 -816 0
-67 -817 0
-68 -818 0
-69 -819 0
-70 -820 0
-71 -821 0
-72 -822 0
-73 -823 0
-74 -824 0
-75 -825 0
-76 -826 0
-77 -827 0
-78 -828 0
-79 -829 0
-80 -830 0
-81 -831 0
-82 -832 0
-83 -833 0
-84 -834 0
-85 -835 0
-86 -836 0
-87 -837 0
-88 -838 0
-89 -839 0
-90 -840 0
-61 -841 0
-62 -842 0
-63 -843 0
-64 -844 0
-65 -845 0
-66 -846 0
-67 -847 0
-68 -848 0
-69 -849 0
-70 -850 0
-71 -851 0
-72 -852 0
-73 -853 0
-74 -854 0
-75 -855 0
-76 -856 0
-77 -857 0
-78 -858 0
-79 -859 0
-80 -860 0
-81 -861 0
-82 -862 0
-83 -863 0
-84 -864 0
-85 -865 0
-86 -866 0
-87 -867 0
-88 -868 0
-89 -869 0
-90 -870 0
-61 -871 0
-62 -872 0
-63 -873 0
-64 -874 0
-65 -875 0
-66 -876 0
-67 -877 0
-68 -878 0
-69 -879 0
-70 -880 0
-71 -881 0
-72 -882 0
-73 -883 0
-74 -884 0
-75 -885 0
-76 -886 0
-77 -887 0
-78 -888 0
-79 -889 0
-80 -890 0
-81 -891 0
-82 -892 0
-83 -893 0
-84 -894 0
-85 -895 0
-86 -896 0
-87 -897 0
-88 -898 0
-89 -899 0
-90 -900 0
-61 -901 0
-62 -902 0
-63 -903 0
-64 -904 0
-65 -905 0
-66 -906 0
-67 -907 0
-68 -908 0
-69 -909 0
-70 -910 0
-71 -911 0
-72 -912 0
-73 -913 0
-74 -914 0
-75 -915 0
-76 -916 0
-77 -917 0
-78 -918 0
-79 -919 0
-80 -920 0
-81 -921 0
-82 -922 0
-83 -923 0
-84 -924 0
-85 -925 0
-86 -926 0
-87 -927 0
-88 -928 0
-89 -929 0
-90 -930 0
