c Pigeonhole formula PHP_25
c 26 pigeons, 25 holes
c Unsatisfiable: YES (pigeonhole principle)
c Variables: 650
c Clauses: 16900
p cnf 650 16900
1 2 3 4 5 6 7 8 9 10 11 12 13 14 15 16 17 18 19 20 21 22 23 24 25 0
26 27 28 29 30 31 32 33 34 35 36 37 38 39 40 41 42 43 44 45 46 47 48 49 50 0
51 52 53 54 55 56 57 58 59 60 61 62 63 64 65 66 67 68 69 70 71 72 73 74 75 0
76 77 78 79 80 81 82 83 84 85 86 87 88 89 90 91 92 93 94 95 96 97 98 99 100 0
101 102 103 104 105 106 107 108 109 110 111 112 113 114 115 116 117 118 119 120 121 122 123 124 125 0
126 127 128 129 130 131 132 133 134 135 136 137 138 139 140 141 142 143 144 145 146 147 148 149 150 0
151 152 153 154 155 156 157 158 159 160 161 162 163 164 165 166 167 168 169 170 171 172 173 174 175 0
176 177 178 179 180 181 182 183 184 185 186 187 188 189 190 191 192 193 194 195 196 197 198 199 200 0
201 202 203 204 205 206 207 208 209 210 211 212 213 214 215 216 217 218 219 220 221 222 223 224 225 0
226 227 228 229 230 231 232 233 234 235 236 237 238 239 240 241 242 243 244 245 246 247 248 249 250 0
251 252 253 254 255 256 257 258 259 260 261 262 263 264 265 266 267 268 269 270 271 272 273 274 275 0
276 277 278 279 280 281 282 283 284 285 286 287 288 289 290 291 292 293 294 295 296 297 298 299 300 0
301 302 303 304 305 306 307 308 309 310 311 312 313 314 315 316 317 318 319 320 321 322 323 324 325 0
326 327 328 329 330 331 332 333 334 335 336 337 338 339 340 341 342 343 344 345 346 347 348 349 350 0
351 352 353 354 355 356 357 358 359 360 361 362 363 364 365 366 367 368 369 370 371 372 373 374 375 0
376 377 378 379 380 381 382 383 384 385 386 387 388 389 390 391 392 393 394 395 396 397 398 399 400 0
401 402 403 404 405 406 407 408 409 410 411 412 413 414 415 416 417 418 419 420 421 422 423 424 425 0
426 427 428 429 430 431 432 433 434 435 436 437 438 439 440 441 442 443 444 445 446 447 448 449 450 0
451 452 453 454 455 456 457 458 459 460 461 462 463 464 465 466 467 468 469 470 471 472 473 474 475 0
476 477 478 479 480 481 482 483 484 485 486 487 488 489 490 491 492 493 494 495 496 497 498 499 500 0
501 502 503 504 505 506 507 508 509 510 511 512 513 514 515 516 517 518 519 520 521 522 523 524 525 0
526 527 528 529 530 531 532 533 534 535 536 537 538 539 540 541 542 543 544 545 546 547 548 549 550 0
551 552 553 554 555 556 557 558 559 560 561 562 563 564 565 566 567 568 569 570 571 572 573 574 575 0
576 577 578 579 580 581 582 583 584 585 586 587 588 589 590 591 592 593 594 595 596 597 598 599 600 0
601 602 603 604 605 606 607 608 609 610 611 612 613 614 615 616 617 618 619 620 621 622 623 624 625 0
626 627 628 629 630 631 632 633 634 635 636 637 638 639 640 641 642 643 644 645 646 647 648 649 650 0
-1 -26 0
-2 -27 0
-3 -28 0
-4 -29 0
-5 -30 0
-6 -31 0
-7 -32 0
-8 -33 0
-9 -34 0
-10 -35 0
-11 -36 0
-12 -37 0
-13 -38 0
-14 -39 0
-15 -40 0
-16 -41 0
-17 -42 0
-18 -43 0
-19 -44 0
-20 -45 0
-21 -46 0
-22 -47 0
-23 -48 0
-24 -49 0
-25 -50 0
-1 -51 0
-2 -52 0
-3 -53 0
-4 -54 0
-5 -55 0
-6 -56 0
-7 -57 0
-8 -58 0
-9 -59 0
-10 -60 0
-11 -61 0
-12 -62 0
-13 -63 0
-14 -64 0
-15 -65 0
-16 -66 0
-17 -67 0
-18 -68 0
-19 -69 0
-20 -70 0
-21 -71 0
-22 -72 0
-23 -73 0
-24 -74 0
-25 -75 0
-1 -76 0
-2 -77 0
-3 -78 0
-4 -79 0
-5 -80 0
-6 -81 0
-7 -82 0
-8 -83 0
-9 -84 0
-10 -85 0
-11 -86 0
-12 -87 0
-13 -88 0
-14 -89 0
-15 -90 0
-16 -91 0
-17 -92 0
-18 -93 0
-19 -94 0
-20 -95 0
-21 -96 0
-22 -97 0
-23 -98 0
-24 -99 0
-25 -100 0
-1 -101 0
-2 -102 0
-3 -103 0
-4 -104 0
-5 -105 0
-6 -106 0
-7 -107 0
-8 -108 0
-9 -109 0
-10 -110 0
-11 -111 0
-12 -112 0
-13 -113 0
-14 -114 0
-15 -115 0
-16 -116 0
-17 -117 0
-18 -118 0
-19 -119 0
-20 -120 0
-21 -121 0
-22 -122 0
-23 -123 0
-24 -124 0
-25 -125 0
-1 -126 0
-2 -127 0
-3 -128 0
-4 -129 0
-5 -130 0
-6 -131 0
-7 -132 0
-8 -133 0
-9 -134 0
-10 -135 0
-11 -136 0
-12 -137 0
-13 -138 0
-14 -139 0
-15 -140 0
-16 -141 0
-17 -142 0
-18 -143 0
-19 -144 0
-20 -145 0
-21 -146 0
-22 -147 0
-23 -148 0
-24 -149 0
-25 -150 0
-1 -151 0
-2 -152 0
-3 -153 0
-4 -154 0
-5 -155 0
-6 -156 0
-7 -157 0
-8 -158 0
-9 -159 0
-10 -160 0
-11 -161 0
-12 -162 0
-13 -163 0
-14 -164 0
-15 -165 0
-16 -166 0
-17 -167 0
-18 -168 0
-19 -169 0
-20 -170 0
-21 -171 0
-22 -172 0
-23 -173 0
-24 -174 0
-25 -175 0
-1 -176 0
-2 -177 0
-3 -178 0
-4 -179 0
-5 -180 0
-6 -181 0
-7 -182 0
-8 -183 0
-9 -184 0
-10 -185 0
-11 -186 0
-12 -187 0
-13 -188 0
-14 -189 0
-15 -190 0
-16 -191 0
-17 -192 0
-18 -193 0
-19 -194 0
-20 -195 0
-21 -196 0
-22 -197 0
-23 -198 0
-24 -199 0
-25 -200 0
-1 -201 0
-2 -202 0
-3 -203 0
-4 -204 0
-5 -205 0
-6 -206 0
-7 -207 0
-8 -208 0
-9 -209 0
-10 -210 0
-11 -211 0
-12 -212 0
-13 -213 0
-14 -214 0
-15 -215 0
-16 -216 0
-17 -217 0
-18 -218 0
-19 -219 0
-20 -220 0
-21 -221 0
-22 -222 0
-23 -223 0
-24 -224 0
-25 -225 0
-1 -226 0
-2 -227 0
-3 -228 0
-4 -229 0
-5 -230 0
-6 -231 0
-7 -232 0
-8 -233 0
-9 -234 0
-10 -235 0
-11 -236 0
-12 -237 0
-13 -238 0
-14 -239 0
-15 -240 0
-16 -241 0
-17 -242 0
-18 -243 0
-19 -244 0
-20 -245 0
-21 -246 0
-22 -247 0
-23 -248 0
-24 -249 0
-25 -250 0
-1 -251 0
-2 -252 0
-3 -253 0
-4 -254 0
-5 -255 0
-6 -256 0
-7 -257 0
-8 -258 0
-9 -259 0
-10 -260 0
-11 -261 0
-12 -262 0
-13 -263 0
-14 -264 0
-15 -265 0
-16 -266 0
-17 -267 0
-18 -268 0
-19 -269 0
-20 -270 0
-21 -271 0
-22 -272 0
-23 -273 0
-24 -274 0
-25 -275 0
-1 -276 0
-2 -277 0
-3 -278 0
-4 -279 0
-5 -280 0
-6 -281 0
-7 -282 0
-8 -283 0
-9 -284 0
-10 -285 0
-11 -286 0
-12 -287 0
-13 -288 0
-14 -289 0
-15 -290 0
-16 -291 0
-17 -292 0
-18 -293 0
-19 -294 0
-20 -295 0
-21 -296 0
-22 -297 0
-23 -298 0
-24 -299 0
-25 -300 0
-1 -301 0
-2 -302 0
-3 -303 0
-4 -304 0
-5 -305 0
-6 -306 0
-7 -307 0
-8 -308 0
-9 -309 0
-10 -310 0
-11 -311 0
-12 -312 0
-13 -313 0
-14 -314 0
-15 -315 0
-16 -316 0
-17 -317 0
-18 -318 0
-19 -319 0
-20 -320 0
-21 -321 0
-22 -322 0
-23 -323 0
-24 -324 0
-25 -325 0
-1 -326 0
-2 -327 0
-3 -328 0
-4 -329 0
-5 -330 0
-6 -331 0
-7 -332 0
-8 -333 0
-9 -334 0
-10 -335 0
-11 -336 0
-12 -337 0
-13 -338 0
-14 -339 0
-15 -340 0
-16 -341 0
-17 -342 0
-18 -343 0
-19 -344 0
-20 -345 0
-21 -346 0
-22 -347 0
-23 -348 0
-24 -349 0
-25 -350 0
-1 -351 0
-2 -352 0
-3 -353 0
-4 -354 0
-5 -355 0
-6 -356 0
-7 -357 0
-8 -358 0
-9 -359 0
-10 -360 0
-11 -361 0
-12 -362 0
-13 -363 0
-14 -364 0
-15 -365 0
-16 -366 0
-17 -367 0
-18 -368 0
-19 -369 0
-20 -370 0
-21 -371 0
-22 -372 0
-23 -373 0
-24 -374 0
-25 -375 0
-1 -376 0
-2 -377 0
-3 -378 0
-4 -379 0
-5 -380 0
-6 -381 0
-7 -382 0
-8 -383 0
-9 -384 0
-10 -385 0
-11 -386 0
-12 -387 0
-13 -388 0
-14 -389 0
-15 -390 0
-16 -391 0
-17 -392 0
-18 -393 0
-19 -394 0
-20 -395 0
-21 -396 0
-22 -397 0
-23 -398 0
-24 -399 0
-25 -400 0
-1 -401 0
-2 -402 0
-3 -403 0
-4 -404 0
-5 -405 0
-6 -406 0
-7 -407 0
-8 -408 0
-9 -409 0
-10 -410 0
-11 -411 0
-12 -412 0
-13 -413 0
-14 -414 0
-15 -415 0
-16 -416 0
-17 -417 0
-18 -418 0
-19 -419 0
-20 -420 0
-21 -421 0
-22 -422 0
-23 -423 0
-24 -424 0
-25 -425 0
-1 -426 0
-2 -427 0
-3 -428 0
-4 -429 0
-5 -430 0
-6 -431 0
-7 -432 0
-8 -433 0
-9 -434 0
-10 -435 0
-11 -436 0
-12 -437 0
-13 -438 0
-14 -439 0
-15 -440 0
-16 -441 0
-17 -442 0
-18 -443 0
-19 -444 0
-20 -445 0
-21 -446 0
-22 -447 0
-23 -448 0
-24 -449 0
-25 -450 0
-1 -451 0
-2 -452 0
-3 -453 0
-4 -454 0
-5 -455 0
-6 -456 0
-7 -457 0
-8 -458 0
-9 -459 0
-10 -460 0
-11 -461 0
-12 -462 0
-13 -463 0
-14 -464 0
-15 -465 0
-16 -466 0
-17 -467 0
-18 -468 0
-19 -469 0
-20 -470 0
-21 -471 0
-22 -472 0
-23 -473 0
-24 -474 0
-25 -475 0
-1 -476 0
-2 -477 0
-3 -478 0
-4 -479 0
-5 -480 0
-6 -481 0
-7 -482 0
-8 -483 0
-9 -484 0
-10 -485 0
-11 -486 0
-12 -487 0
-13 -488 0
-14 -489 0
-15 -490 0
-16 -491 0
-17 -492 0
-18 -493 0
-19 -494 0
-20 -495 0
-21 -496 0
-22 -497 0
-23 -498 0
-24 -499 0
-25 -500 0
-1 -501 0
-2 -502 0
-3 -503 0
-4 -504 0
-5 -505 0
-6 -506 0
-7 -507 0
-8 -508 0
-9 -509 0
-10 -510 0
-11 -511 0
-12 -512 0
-13 -513 0
-14 -514 0
-15 -515 0
-16 -516 0
-17 -517 0
-18 -518 0
-19 -519 0
-20 -520 0
-21 -521 0
-22 -522 0
-23 -523 0
-24 -524 0
-25 -525 0
-1 -526 0
-2 -527 0
-3 -528 0
-4 -529 0
-5 -530 0
-6 -531 0
-7 -532 0
-8 -533 0
-9 -534 0
-10 -535 0
-11 -536 0
-12 -537 0
-13 -538 0
-14 -539 0
-15 -540 0
-16 -541 0
-17 -542 0
-18 -543 0
-19 -544 0
-20 -545 0
-21 -546 0
-22 -547 0
-23 -548 0
-24 -549 0
-25 -550 0
-1 -551 0
-2 -552 0
-3 -553 0
-4 -554 0
-5 -555 0
-6 -556 0
-7 -557 0
-8 -558 0
-9 -559 0
-10 -560 0
-11 -561 0
-12 -562 0
-13 -563 0
-14 -564 0
-15 -565 0
-16 -566 0
-17 -567 0
-18 -568 0
-19 -569 0
-20 -570 0
-21 -571 0
-22 -572 0
-23 -573 0
-24 -574 0
-25 -575 0
-1 -576 0
-2 -577 0
-3 -578 0
-4 -579 0
-5 -580 0
-6 -581 0
-7 -582 0
-8 -583 0
-9 -584 0
-10 -585 0
-11 -586 0
-12 -587 0
-13 -588 0
-14 -589 0
-15 -590 0
-16 -591 0
-17 -592 0
-18 -593 0
-19 -594 0
-20 -595 0
-21 -596 0
-22 -597 0
-23 -598 0
-24 -599 0
-25 -600 0
-1 -601 0
-2 -602 0
-3 -603 0
-4 -604 0
-5 -605 0
-6 -606 0
-7 -607 0
-8 -608 0
-9 -609 0
-10 -610 0
-11 -611 0
-12 -612 0
-13 -613 0
-14 -614 0
-15 -615 0
-16 -616 0
-17 -617 0
-18 -618 0
-19 -619 0
-20 -620 0
-21 -621 0
-22 -622 0
-23 -623 0
-24 -624 0
-25 -625 0
-1 -626 0
-2 -627 0
-3 -628 0
-4 -629 0
-5 -630 0
-6 -631 0
-7 -632 0
-8 -633 0
-9 -634 0
-10 -635 0
-11 -636 0
-12 -637 0
-13 -638 0
-14 -639 0
-15 -640 0
-16 -641 0
-17 -642 0
-18 -643 0
-19 -644 0
-20 -645 0
-21 -646 0
-22 -647 0
-23 -648 0
-24 -649 0
-25 -650 0
-26 -51 0
-27 -52 0
-28 -53 0
-29 -54 0
-30 -55 0
-31 -56 0
-32 -57 0
-33 -58 0
-34 -59 0
-35 -60 0
-36 -61 0
-37 -62 0
-38 -63 0
-39 -64 0
-40 -65 0
-41 -66 0
-42 -67 0
-43 -68 0
-44 -69 0
-45 -70 0
-46 -71 0
-47 -72 0
-48 -73 0
-49 -74 0
-50 -75 0
-26 -76 0
-27 -77 0
-28 -78 0
-29 -79 0
-30 -80 0
-31 -81 0
-32 -82 0
-33 -83 0
-34 -84 0
-35 -85 0
-36 -86 0
-37 -87 0
-38 -88 0
-39 -89 0
-40 -90 0
-41 -91 0
-42 -92 0
-43 -93 0
-44 -94 0
-45 -95 0
-46 -96 0
-47 -97 0
-48 -98 0
-49 -99 0
-50 -100 0
-26 -101 0
-27 -102 0
-28 -103 0
-29 -104 0
-30 -105 0
-31 -106 0
-32 -107 0
-33 -108 0
-34 -109 0
-35 -110 0
-36 -111 0
-37 -112 0
-38 -113 0
-39 -114 0
-40 -115 0
-41 -116 0
-42 -117 0
-43 -118 0
-44 -119 0
-45 -120 0
-46 -121 0
-47 -122 0
-48 -123 0
-49 -124 0
-50 -125 0
-26 -126 0
-27 -127 0
-28 -128 0
-29 -129 0
-30 -130 0
-31 -131 0
-32 -132 0
-33 -133 0
-34 -134 0
-35 -135 0
-36 -136 0
-37 -137 0
-38 -138 0
-39 -139 0
-40 -140 0
-41 -141 0
-42 -142 0
-43 -143 0
-44 -144 0
-45 -145 0
-46 -146 0
-47 -147 0
-48 -148 0
-49 -149 0
-50 -150 0
-26 -151 0
-27 -152 0
-28 -153 0
-29 -154 0
-30 -155 0
-31 -156 0
-32 -157 0
-33 -158 0
-34 -159 0
-35 -160 0
-36 -161 0
-37 -162 0
-38 -163 0
-39 -164 0
-40 -165 0
-41 -166 0
-42 -167 0
-43 -168 0
-44 -169 0
-45 -170 0
-46 -171 0
-47 -172 0
-48 -173 0
-49 -174 0
-50 -175 0
-26 -176 0
-27 -177 0
-28 -178 0
-29 -179 0
-30 -180 0
-31 -181 0
-32 -182 0
-33 -183 0
-34 -184 0
-35 -185 0
-36 -186 0
-37 -187 0
-38 -188 0
-39 -189 0
-40 -190 0
-41 -191 0
-42 -192 0
-43 -193 0
-44 -194 0
-45 -195 0
-46 -196 0
-47 -197 0
-48 -198 0
-49 -199 0
-50 -200 0
-26 -201 0
-27 -202 0
-28 -203 0
-29 -204 0
-30 -205 0
-31 -206 0
-32 -207 0
-33 -208 0
-34 -209 0
-35 -210 0
-36 -211 0
-37 -212 0
-38 -213 0
-39 -214 0
-40 -215 0
-41 -216 0
-42 -217 0
-43 -218 0
-44 -219 0
-45 -220 0
-46 -221 0
-47 -222 0
-48 -223 0
-49 -224 0
-50 -225 0
-26 -226 0
-27 -227 0
-28 -228 0
-29 -229 0
-30 -230 0
-31 -231 0
-32 -232 0
-33 -233 0
-34 -234 0
-35 -235 0
-36 -236 0
-37 -237 0
-38 -238 0
-39 -239 0
-40 -240 0
-41 -241 0
-42 -242 0
-43 -243 0
-44 -244 0
-45 -245 0
-46 -246 0
-47 -247 0
-48 -248 0
-49 -249 0
-50 -250 0
-26 -251 0
-27 -252 0
-28 -253 0
-29 -254 0
-30 -255 0
-31 -256 0
-32 -257 0
-33 -258 0
-34 -259 0
-35 -260 0
-36 -261 0
-37 -262 0
-38 -263 0
-39 -264 0
-40 -265 0
-41 -266 0
-42 -267 0
-43 -268 0
-44 -269 0
-45 -270 0
-46 -271 0
-47 -272 0
-48 -273 0
-49 -274 0
-50 -275 0
-26 -276 0
-27 -277 0
-28 -278 0
-29 -279 0
-30 -280 0
-31 -281 0
-32 -282 0
-33 -283 0
-34 -284 0
-35 -285 0
-36 -286 0
-37 -287 0
-38 -288 0
-39 -289 0
-40 -290 0
-41 -291 0
-42 -292 0
-43 -293 0
-44 -294 0
-45 -295 0
-46 -296 0
-47 -297 0
-48 -298 0
-49 -299 0
-50 -300 0
-26 -301 0
-27 -302 0
-28 -303 0
-29 -304 0
-30 -305 0
-31 -306 0
-32 -307 0
-33 -308 0
-34 -309 0
-35 -310 0
-36 -311 0
-37 -312 0
-38 -313 0
-39 -314 0
-40 -315 0
-41 -316 0
-42 -317 0
-43 -318 0
-44 -319 0
-45 -320 0
-46 -321 0
-47 -322 0
-48 -323 0
-49 -324 0
-50 -325 0
-26 -326 0
-27 -327 0
-28 -328 0
-29 -329 0
-30 -330 0
-31 -331 0
-32 -332 0
-33 -333 0
-34 -334 0
-35 -335 0
-36 -336 0
-37 -337 0
-38 -338 0
-39 -339 0
-40 -340 0
-41 -341 0
-42 -342 0
-43 -343 0
-44 -344 0
-45 -345 0
-46 -346 0
-47 -347 0
-48 -348 0
-49 -349 0
-50 -350 0
-26 -351 0
-27 -352 0
-28 -353 0
-29 -354 0
-30 -355 0
-31 -356 0
-32 -357 0
-33 -358 0
-34 -359 0
-35 -360 0
-36 -361 0
-37 -362 0
-38 -363 0
-39 -364 0
-40 -365 0
-41 -366 0
-42 -367 0
-43 -368 0
-44 -369 0
-45 -370 0
-46 -371 0
-47 -372 0
-48 -373 0
-49 -374 0
-50 -375 0
-26 -376 0
-27 -377 0
-28 -378 0
-29 -379 0
-30 -380 0
-31 -381 0
-32 -382 0
-33 -383 0
-34 -384 0
-35 -385 0
-36 -386 0
-37 -387 0
-38 -388 0
-39 -389 0
-40 -390 0
-41 -391 0
-42 -392 0
-43 -393 0
-44 -394 0
-45 -395 0
-46 -396 0
-47 -397 0
-48 -398 0
-49 -399 0
-50 -400 0
-26 -401 0
-27 -402 0
-28 -403 0
-29 -404 0
-30 -405 0
-31 -406 0
-32 -407 0
-33 -408 0
-34 -409 0
-35 -410 0
-36 -411 0
-37 -412 0
-38 -413 0
-39 -414 0
-40 -415 0
-41 -416 0
-42 -417 0
-43 -418 0
-44 -419 0
-45 -420 0
-46 -421 0
-47 -422 0
-48 -423 0
-49 -424 0
-50 -425 0
-26 -426 0
-27 -427 0
-28 -428 0
-29 -429 0
-30 -430 0
-31 -431 0
-32 -432 0
-33 -433 0
-34 -434 0
-35 -435 0
-36 -436 0
-37 -437 0
-38 -438 0
-39 -439 0
-40 -440 0
-41 -441 0
-42 -442 0
-43 -443 0
-44 -444 0
-45 -445 0
-46 -446 0
-47 -447 0
-48 -448 0
-49 -449 0
-50 -450 0
-26 -451 0
-27 -452 0
-28 -453 0
-29 -454 0
-30 -455 0
-31 -456 0
-32 -457 0
-33 -458 0
-34 -459 0
-35 -460 0
-36 -461 0
-37 -462 0
-38 -463 0
-39 -464 0
-40 -465 0
-41 -466 0
-42 -467 0
-43 -468 0
-44 -469 0
-45 -470 0
-46 -471 0
-47 -472 0
-48 -473 0
-49 -474 0
-50 -475 0
-26 -476 0
-27 -477 0
-28 -478 0
-29 -479 0
-30 -480 0
-31 -481 0
-32 -482 0
-33 -483 0
-34 -484 0
-35 -485 0
-36 -486 0
-37 -487 0
-38 -488 0
-39 -489 0
-40 -490 0
-41 -491 0
-42 -492 0
-43 -493 0
-44 -494 0
-45 -495 0
-46 -496 0
-47 -497 0
-48 -498 0
-49 -499 0
-50 -500 0
-26 -501 0
-27 -502 0
-28 -503 0
-29 -504 0
-30 -505 0
-31 -506 0
-32 -507 0
-33 -508 0
-34 -509 0
-35 -510 0
-36 -511 0
-37 -512 0
-38 -513 0
-39 -514 0
-40 -515 0
-41 -516 0
-42 -517 0
-43 -518 0
-44 -519 0
-45 -520 0
-46 -521 0
-47 -522 0
-48 -523 0
-49 -524 0
-50 -525 0
-26 -526 0
-27 -527 0
-28 -528 0
-29 -529 0
-30 -530 0
-31 -531 0
-32 -532 0
-33 -533 0
-34 -534 0
-35 -535 0
-36 -536 0
-37 -537 0
-38 -538 0
-39 -539 0
-40 -540 0
-41 -541 0
-42 -542 0
-43 -543 0
-44 -544 0
-45 -545 0
-46 -546 0
-47 -547 0
-48 -548 0
-49 -549 0
-50 -550 0
-26 -551 0
-27 -552 0
-28 -553 0
-29 -554 0
-30 -555 0
-31 -556 0
-32 -557 0
-33 -558 0
-34 -559 0
-35 -560 0
-36 -561 0
-37 -562 0
-38 -563 0
-39 -564 0
-40 -565 0
-41 -566 0
-42 -567 0
-43 -568 0
-44 -569 0
-45 -570 0
-46 -571 0
-47 -572 0
-48 -573 0
-49 -574 0
-50 -575 0
-26 -576 0
-27 -577 0
-28 -578 0
-29 -579 0
-30 -580 0
-31 -581 0
-32 -582 0
-33 -583 0
-34 -584 0
-35 -585 0
-36 -586 0
-37 -587 0
-38 -588 0
-39 -589 0
-40 -590 0
-41 -591 0
-42 -592 0
-43 -593 0
-44 -594 0
-45 -595 0
-46 -596 0
-47 -597 0
-48 -598 0
-49 -599 0
-50 -600 0
-26 -601 0
-27 -602 0
-28 -603 0
-29 -604 0
-30 -605 0
-31 -606 0
-32 -607 0
-33 -608 0
-34 -609 0
-35 -610 0
-36 -611 0
-37 -612 0
-38 -613 0
-39 -614 0
-40 -615 0
-41 -616 0
-42 -617 0
-43 -618 0
-44 -619 0
-45 -620 0
-46 -621 0
-47 -622 0
-48 -623 0
-49 -624 0
-50 -625 0
-26 -626 0
-27 -627 0
-28 -628 0
-29 -629 0
-30 -630 0
-31 -631 0
-32 -632 0
-33 -633 0
-34 -634 0
-35 -635 0
-36 -636 0
-37 -637 0
-38 -638 0
-39 -639 0
-40 -640 0
-41 -641 0
-42 -642 0
-43 -643 0
-44 -644 0
-45 -645 0
-46 -646 0
-47 -647 0
-48 -648 0
-49 -649 0
-50 -650 0
-51 -76 0
-52 -77 0
-53 -78 0
-54 -79 0
-55 -80 0
-56 -81 0
-57 -82 0
-58 -83 0
-59 -84 0
-60 -85 0
-61 -86 0
-62 -87 0
-63 -88 0
-64 -89 0
-65 -90 0
-66 -91 0
-67 -92 0
-68 -93 0
-69 -94 0
-70 -95 0
-71 -96 0
-72 -97 0
-73 -98 0
-74 -99 0
-75 -100 0
-51 -101 0
-52 -102 0
-53 -103 0
-54 -104 0
-55 -105 0
-56 -106 0
-57 -107 0
-58 -108 0
-59 -109 0
-60 -110 0
-61 -111 0
-62 -112 0
-63 -113 0
-64 -114 0
-65 -115 0
-66 -116 0
-67 -117 0
-68 -118 0
-69 -119 0
-70 -120 0
-71 -121 0
-72 -122 0
-73 -123 0
-74 -124 0
-75 -125 0
-51 -126 0
-52 -127 0
-53 -128 0
-54 -129 0
-55 -130 0
-56 -131 0
-57 -132 0
-58 -133 0
-59 -134 0
-60 -135 0
-61 -136 0
-62 -137 0
-63 -138 0
-64 -139 0
-65 -140 0
-66 -141 0
-67 -142 0
-68 -143 0
-69 -144 0
-70 -145 0
-71 -146 0
-72 -147 0
-73 -148 0
-74 -149 0
-75 -150 0
-51 -151 0
-52 -152 0
-53 -153 0
-54 -154 0
-55 -155 0
-56 -156 0
-57 -157 0
-58 -158 0
-59 -159 0
-60 -160 0
-61 -161 0
-62 -162 0
-63 -163 0
-64 -164 0
-65 -165 0
-66 -166 0
-67 -167 0
-68 -168 0
-69 -169 0
-70 -170 0
-71 -171 0
-72 -172 0
-73 -173 0
-74 -174 0
-75 -175 0
-51 -176 0
-52 -177 0
-53 -178 0
-54 -179 0
-55 -180 0
-56 -181 0
-57 -182 0
-58 -183 0
-59 -184 0
-60 -185 0
-61 -186 0
-62 -187 0
-63 -188 0
-64 -189 0
-65 -190 0
-66 -191 0
-67 -192 0
-68 -193 0
-69 -194 0
-70 -195 0
-71 -196 0
-72 -197 0
-73 -198 0
-74 -199 0
-75 -200 0
-51 -201 0
-52 -202 0
-53 -203 0
-54 -204 0
-55 -205 0
-56 -206 0
-57 -207 0
-58 -208 0
-59 -209 0
-60 -210 0
-61 -211 0
-62 -212 0
-63 -213 0
-64 -214 0
-65 -215 0
-66 -216 0
-67 -217 0
-68 -218 0
-69 -219 0
-70 -220 0
-71 -221 0
-72 -222 0
-73 -223 0
-74 -224 0
-75 -225 0
-51 -226 0
-52 -227 0
-53 -228 0
-54 -229 0
-55 -230 0
-56 -231 0
-57 -232 0
-58 -233 0
-59 -234 0
-60 -235 0
-61 -236 0
-62 -237 0
-63 -238 0
-64 -239 0
-65 -240 0
-66 -241 0
-67 -242 0
-68 -243 0
-69 -244 0
-70 -245 0
-71 -246 0
-72 -247 0
-73 -248 0
-74 -249 0
-75 -250 0
-51 -251 0
-52 -252 0
-53 -253 0
-54 -254 0
-55 -255 0
-56 -256 0
-57 -257 0
-58 -258 0
-59 -259 0
-60 -260 0
-61 -261 0
-62 -262 0
-63 -263 0
-64 -264 0
-65 -265 0
-66 -266 0
-67 -267 0
-68 -268 0
-69 -269 0
-70 -270 0
-71 -271 0
-72 -272 0
-73 -273 0
-74 -274 0
-75 -275 0
-51 -276 0
-52 -277 0
-53 -278 0
-54 -279 0
-55 -280 0
-56 -281 0
-57 -282 0
-58 -283 0
-59 -284 0
-60 -285 0
-61 -286 0
-62 -287 0
-63 -288 0
-64 -289 0
-65 -290 0
-66 -291 0
-67 -292 0
-68 -293 0
-69 -294 0
-70 -295 0
-71 -296 0
-72 -297 0
-73 -298 0
-74 -299 0
-75 -300 0
-51 -301 0
-52 -302 0
-53 -303 0
-54 -304 0
-55 -305 0
-56 -306 0
-57 -307 0
-58 -308 0
-59 -309 0
-60 -310 0
-61 -311 0
-62 -312 0
-63 -313 0
-64 -314 0
-65 -315 0
-66 -316 0
-67 -317 0
-68 -318 0
-69 -319 0
-70 -320 0
-71 -321 0
-72 -322 0
-73 -323 0
-74 -324 0
-75 -325 0
-51 -326 0
-52 -327 0
-53 -328 0
-54 -329 0
-55 -330 0
-56 -331 0
-57 -332 0
-58 -333 0
-59 -334 0
-60 -335 0
-61 -336 0
-62 -337 0
-63 -338 0
-64 -339 0
-65 -340 0
-66 -341 0
-67 -342 0
-68 -343 0
-69 -344 0
-70 -345 0
-71 -346 0
-72 -347 0
-73 -348 0
-74 -349 0
-75 -350 0
-51 -351 0
-52 -352 0
-53 -353 0
-54 -354 0
-55 -355 0
-56 -356 0
-57 -357 0
-58 -358 0
-59 -359 0
-60 -360 0
-61 -361 0
-62 -362 0
-63 -363 0
-64 -364 0
-65 -365 0
-66 -366 0
-67 -367 0
-68 -368 0
-69 -369 0
-70 -370 0
-71 -371 0
-72 -372 0
-73 -373 0
-74 -374 0
-75 -375 0
-51 -376 0
-52 -377 0
-53 -378 0
-54 -379 0
-55 -380 0
-56 -381 0
-57 -382 0
-58 -383 0
-59 -384 0
-60 -385 0
-61 -386 0
-62 -387 0
-63 -388 0
-64 -389 0
-65 -390 0
-66 -391 0
-67 -392 0
-68 -393 0
-69 -394 0
-70 -395 0
-71 -396 0
-72 -397 0
-73 -398 0
-74 -399 0
-75 -400 0
-51 -401 0
-52 -402 0
-53 -403 0
-54 -404 0
-55 -405 0
-56 -406 0
-57 -407 0
-58 -408 0
-59 -409 0
-60 -410 0
-61 -411 0
-62 -412 0
-63 -413 0
-64 -414 0
-65 -415 0
-66 -416 0
-67 -417 0
-68 -418 0
-69 -419 0
-70 -420 0
-71 -421 0
-72 -422 0
-73 -423 0
-74 -424 0
-75 -425 0
-51 -426 0
-52 -427 0
-53 -428 0
-54 -429 0
-55 -430 0
-56 -431 0
-57 -432 0
-58 -433 0
-59 -434 0
-60 -435 0
-61 -436 0
-62 -437 0
-63 -438 0
-64 -439 0
-65 -440 0
-66 -441 0
-67 -442 0
-68 -443 0
-69 -444 0
-70 -445 0
-71 -446 0
-72 -447 0
-73 -448 0
-74 -449 0
-75 -450 0
-51 -451 0
-52 -452 0
-53 -453 0
-54 -454 0
-55 -455 0
-56 -456 0
-57 -457 0
-58 -458 0
-59 -459 0
-60 -460 0
-61 -461 0
-62 -462 0
-63 -463 0
-64 -464 0
-65 -465 0
-66 -466 0
-67 -467 0
-68 -468 0
-69 -469 0
-70 -470 0
-71 -471 0
-72 -472 0
-73 -473 0
-74 -474 0
-75 -475 0
-51 -476 0
-52 -477 0
-53 -478 0
-54 -479 0
-55 -480 0
-56 -481 0
-57 -482 0
-58 -483 0
-59 -484 0
-60 -485 0
-61 -486 0
-62 -487 0
-63 -488 0
-64 -489 0
-65 -490 0
-66 -491 0
-67 -492 0
-68 -493 0
-69 -494 0
-70 -495 0
-71 -496 0
-72 -497 0
-73 -498 0
-74 -499 0
-75 -500 0
-51 -501 0
-52 -502 0
-53 -503 0
-54 -504 0
-55 -505 0
-56 -506 0
-57 -507 0
-58 -508 0
-59 -509 0
-60 -510 0
-61 -511 0
-62 -512 0
-63 -513 0
-64 -514 0
-65 -515 0
-66 -516 0
-67 -517 0
-68 -518 0
-69 -519 0
-70 -520 0
-71 -521 0
-72 -522 0
-73 -523 0
-74 -524 0
-75 -525 0
-51 -526 0
-52 -527 0
-53 -528 0
-54 -529 0
-55 -530 0
-56 -531 0
-57 -532 0
-58 -533 0
-59 -534 0
-60 -535 0
-61 -536 0
-62 -537 0
-63 -538 0
-64 -539 0
-65 -540 0
-66 -541 0
-67 -542 0
-68 -543 0
-69 -544 0
-70 -545 0
-71 -546 0
-72 -547 0
-73 -548 0
-74 -549 0
-75 -550 0
-51 -551 0
-52 -552 0
-53 -553 0
-54 -554 0
-55 -555 0
-56 -556 0
-57 -557 0
-58 -558 0
-59 -559 0
-60 -560 0
-61 -561 0
-62 -562 0
-63 -563 0
-64 -564 0
-65 -565 0
-66 -566 0
-67 -567 0
-68 -568 0
-69 -569 0
-70 -570 0
-71 -571 0
-72 -572 0
-73 -573 0
-74 -574 0
-75 -575 0
-51 -576 0
-52 -577 0
-53 -578 0
-54 -579 0
-55 -580 0
-56 -581 0
-57 -582 0
-58 -583 0
-59 -584 0
-60 -585 0
-61 -586 0
-62 -587 0
-63 -588 0
-64 -589 0
-65 -590 0
-66 -591 0
-67 -592 0
-68 -593 0
-69 -594 0
-70 -595 0
-71 -596 0
-72 -597 0
-73 -598 0
-74 -599 0
-75 -600 0
-51 -601 0
-52 -602 0
-53 -603 0
-54 -604 0
-55 -605 0
-56 -606 0
-57 -607 0
-58 -608 0
-59 -609 0
-60 -610 0
-61 -611 0
-62 -612 0
-63 -613 0
-64 -614 0
-65 -615 0
-66 -616 0
-67 -617 0
-68 -618 0
-69 -619 0
-70 -620 0
-71 -621 0
-72 -622 0
-73 -623 0
-74 -624 0
-75 -625 0
-51 -626 0
-52 -627 0
-53 -628 0
-54 -629 0
-55 -630 0
-56 -631 0
-57 -632 0
-58 -633 0
-59 -634 0
-60 -635 0
-61 -636 0
-62 -637 0
-63 -638 0
-64 -639 0
-65 -640 0
-66 -641 0
-67 -642 0
-68 -643 0
-69 -644 0
-70 -645 0
-71 -646 0
-72 -647 0
-73 -648 0
-74 -649 0
-75 -650 0
